43
charge=0 multiplicity=1
C  -0.690371  4.042875  -0.13142
C  0.622924  3.580502  -0.069939
C  0.902639  2.211244  -0.157698
C  -0.135919  1.286591  -0.35559
C  -1.464204  1.76126  -0.310639
C  -1.73928  3.128613  -0.213464
C  2.284843  1.693142  0.150796
C  2.252911  0.744393  1.350343
N  1.892246  -0.654584  1.036691
Pt  0.201462  -0.796597  -0.538675
C  1.516257  -0.625865  -2.163794
C  -2.557959  0.720963  -0.25446
P  -1.82555  -0.705837  0.671293
H  1.441858  4.292361  0.076313
H  -2.774937  3.481159  -0.186495
H  -0.899046  5.113681  -0.067011
H  -2.818774  0.340782  -1.258186
H  -3.482251  1.09305  0.216707
H  2.731217  1.181015  -0.715836
H  2.952582  2.533131  0.396976
H  3.233667  0.735065  1.864431
C  -3.029794  -2.068332  0.509284
C  -2.008954  -0.176829  2.416021
H  1.515462  1.125345  2.072331
C  3.077909  -1.360238  0.545041
C  1.443384  -1.326003  2.256397
H  1.66632  0.431987  -2.427415
H  2.488517  -1.100474  -1.973215
H  1.084926  -1.132799  -3.038115
H  -0.811207  -0.930821  -1.690132
H  2.796727  -2.366855  0.211276
H  3.514523  -0.824842  -0.304708
H  3.839181  -1.428654  1.345011
H  1.180463  -2.366168  2.024103
H  2.236434  -1.314944  3.029328
H  0.557578  -0.818574  2.653893
H  -3.061082  0.050937  2.646754
H  -1.657498  -0.965563  3.096475
H  -1.405156  0.72942  2.570173
H  -4.038344  -1.766287  0.830924
H  -3.056131  -2.387064  -0.542341
H  -2.694096  -2.923675  1.113258
H  0.397114  -2.414419  -0.679404
