45
charge=0 multiplicity=1
Ta  -0.004309  -0.184481  -0.071043
N  -0.251035  -1.793973  -1.236297
N  -2.007399  -0.095562  0.357381
N  2.06503  -0.278567  -0.112428
N  -0.039879  1.587042  -0.994421
C  0.279142  -0.550402  2.115043
H  -0.66926  -0.904235  2.543656
H  1.074853  -1.271421  2.343902
C  0.601663  0.83161  2.505116
H  1.664879  1.105546  2.488517
C  -0.280697  1.813747  2.771928
H  -1.355552  1.618958  2.818411
H  0.052205  2.834068  2.977044
H  -2.919554  -1.167893  1.946617
C  -2.703835  -1.252824  0.860563
H  -2.113996  -2.169735  0.7105
H  -3.678913  -1.39148  0.352575
H  -3.743967  0.999433  -0.136277
C  -2.826044  1.083134  0.480648
H  -3.165537  1.24799  1.523928
H  -2.276402  1.97934  0.165076
H  3.841906  0.346214  0.849235
C  3.148054  -0.518761  0.798056
H  3.762584  -1.388336  0.483448
H  2.796937  -0.720982  1.81701
H  3.246035  0.866813  -1.458906
C  2.60189  -0.035876  -1.435919
H  3.221648  -0.886469  -1.784894
H  1.805217  0.112619  -2.180386
H  1.580904  -2.686022  -0.713388
C  0.717815  -2.860269  -1.367983
H  1.08493  -2.947078  -2.409978
H  0.272175  -3.83776  -1.099463
H  -1.873328  -2.987282  -1.884969
C  -1.391761  -2.012041  -2.095137
H  -2.147109  -1.228336  -1.949669
H  -1.097556  -2.020638  -3.163488
C  -0.809213  1.780142  -2.195688
H  -0.172998  2.126148  -3.034469
H  -1.612164  2.532795  -2.061772
H  -1.293584  0.84331  -2.51148
H  -0.044852  3.537125  -0.162097
C  0.652093  2.769465  -0.556538
H  1.220158  3.230474  -1.388277
H  1.362508  2.525717  0.245053
