38
charge=0 multiplicity=1
P  -2.169755  -0.224387  0.008045
N  -0.006242  -1.818485  -1.05346
C  1.278725  -2.273629  -1.631261
C  -1.159458  -1.867606  -1.956756
C  -2.429598  -1.668198  -1.14461
H  -2.621245  -2.562503  -0.526518
H  -3.306817  -1.531385  -1.795128
C  2.325826  -1.170386  -1.6638
H  2.110699  -0.454625  -2.4737
P  2.177783  -0.205836  -0.090016
C  0.010003  1.215565  1.365917
O  0.01254  1.949744  2.262789
Mn  0.006521  0.02159  0.078562
C  0.005286  1.155002  -1.272921
O  0.010438  1.935213  -2.139498
C  -3.21746  1.092358  -0.723347
H  -4.270589  0.786474  -0.82043
C  3.255917  1.243619  -0.384316
H  2.819639  1.84906  -1.191845
H  1.652361  -3.110736  -1.019305
H  1.107255  -2.682437  -2.64077
H  3.333073  -1.584571  -1.836576
H  -1.19937  -2.830245  -2.502651
H  -1.042643  -1.066397  -2.704224
C  3.167966  -1.176343  1.111584
H  4.212241  -1.313401  0.789871
C  -3.149098  -0.687412  1.485247
H  -2.674509  -1.556738  1.961378
H  -0.212682  -2.410983  -0.253137
H  0.006337  -0.983935  1.340513
H  -4.201085  -0.909331  1.247604
H  -3.106929  0.146716  2.201718
H  -2.81496  1.366889  -1.70893
H  -3.157746  1.984216  -0.081604
H  2.690662  -2.154827  1.263559
H  3.148443  -0.652662  2.078863
H  3.272657  1.859015  0.527526
H  4.285954  0.957267  -0.646244
