51
charge=0 multiplicity=1
C  -3.070011  0.63425  -0.973121
C  -2.201329  -0.008453  -0.062766
C  -2.836552  -0.751572  0.9580
C  -4.224902  -0.83354  1.075415
C  -5.049784  -0.184905  0.157022
C  -4.459012  0.546109  -0.873973
Ir  -0.178954  0.119834  -0.225734
P  0.193634  -2.076376  -0.672072
C  1.967169  -2.211902  -0.167683
C  2.685842  -0.911062  -0.35073
N  1.942096  0.225811  -0.368461
C  2.566845  1.428066  -0.446679
C  3.955126  1.524041  -0.494688
C  4.724175  0.365059  -0.500185
C  4.076708  -0.862978  -0.43666
C  1.703581  2.653972  -0.534332
P  0.004921  2.339672  0.148293
H  4.641607  -1.796728  -0.429756
H  4.421913  2.509238  -0.546635
H  5.813729  0.419294  -0.551665
H  2.205372  3.528435  -0.090623
H  1.54035  2.88365  -1.602415
H  1.897155  -2.425472  0.920508
H  2.510641  -3.045116  -0.640274
H  -2.640904  1.218723  -1.794008
H  -5.088706  1.056929  -1.609271
H  -6.13757  -0.251158  0.241044
H  -4.666767  -1.417906  1.888592
H  -2.220328  -1.292944  1.684542
H  0.081554  -0.107833  1.878648
O  0.130616  -0.232301  2.880254
H  -0.797777  -0.172976  3.137172
H  0.768225  -1.822903  2.945997
O  1.091703  -2.751727  2.860573
H  1.802359  -2.816035  3.505097
C  -0.617967  -3.464815  0.184991
H  -1.706007  -3.358949  0.066455
H  -0.292001  -4.434804  -0.220628
H  -0.355463  -3.409906  1.251901
C  0.149613  -2.561141  -2.437267
H  0.53895  -3.579279  -2.593849
H  -0.891209  -2.508126  -2.789165
H  0.742675  -1.841173  -3.018678
C  0.061861  2.962121  1.868941
H  0.467587  3.983881  1.928663
H  -0.964941  2.956575  2.265026
H  0.654633  2.268025  2.481086
C  -1.024567  3.594182  -0.694615
H  -2.06072  3.473983  -0.345709
H  -0.68312  4.620898  -0.491296
H  -1.010642  3.40352  -1.777036
