39
charge=0 multiplicity=1
Os  -0.068331  -0.268183  -0.315153
H  0.005572  1.192157  0.602116
H  -0.062562  1.002937  -1.566405
P  -2.403407  -0.062505  -0.219018
P  2.274619  -0.176447  -0.313663
C  3.208669  -1.519276  -1.134959
H  4.297934  -1.375884  -1.059989
H  2.926887  -2.47551  -0.671062
H  2.911095  -1.561247  -2.192496
C  2.957559  1.344353  -1.067102
H  2.520335  2.194613  -0.521459
H  4.05587  1.377413  -0.999887
H  2.656243  1.404238  -2.122988
C  3.007152  -0.132233  1.361923
H  2.744481  -1.053756  1.901116
H  4.10237  -0.028129  1.327022
H  2.565068  0.717389  1.901383
C  -3.090224  1.328412  -1.190728
H  -4.181794  1.403799  -1.071175
H  -2.617039  2.258143  -0.842516
H  -2.85178  1.1869  -2.254958
C  -3.408506  -1.488736  -0.772009
H  -3.129735  -2.367079  -0.172124
H  -4.488666  -1.299671  -0.671209
H  -3.163605  -1.709021  -1.82081
C  -3.044689  0.268542  1.459657
H  -2.544759  1.167491  1.848406
H  -4.135927  0.412379  1.458934
H  -2.788013  -0.576086  2.115558
C  -0.078782  -1.376174  1.199903
O  -0.089899  -2.071472  2.121911
H  1.955027  3.283346  1.910365
H  1.2791  4.06318  0.573048
H  -1.040678  3.037128  0.882281
H  -0.19983  2.04578  2.53452
B  -0.059929  2.659633  1.496167
N  1.152402  3.37891  1.304939
H  -0.093494  0.219581  -2.009217
H  -0.128083  -1.666873  -1.263358
