41
charge=0 multiplicity=1
C  1.165701  -0.957464  -0.514171
C  2.000739  0.159848  -0.784523
C  2.804675  0.102083  -1.945997
C  2.820394  -1.024604  -2.7458
C  2.026136  -2.139743  -2.416198
C  1.215112  -2.132534  -1.293746
H  3.435365  0.970827  -2.150494
H  3.460697  -1.057603  -3.629464
H  2.028962  -3.019493  -3.065325
H  0.574363  -2.979994  -1.038966
C  2.212303  1.343904  0.122637
O  2.839177  2.320407  -0.226194
N  1.605364  1.236815  1.351223
O  1.949577  2.143095  2.313438
C  1.182104  3.321968  2.195264
H  0.10262  3.10135  2.263599
H  1.483622  3.959224  3.037393
H  1.398391  3.839419  1.247526
Pd  -0.388203  0.118245  -0.446046
O  1.285343  -1.537947  1.352569
C  2.358649  -2.415687  1.598686
H  2.194112  -2.951327  2.546824
H  2.471929  -3.15083  0.783966
H  3.284837  -1.82809  1.674293
O  -1.980165  -0.946414  0.565002
O  -1.901584  1.685654  -0.882185
C  -3.11327  1.690633  -0.684762
O  -3.763387  0.729749  -0.093583
C  -3.974752  2.834745  -1.120067
H  -4.744279  2.467725  -1.814863
H  -4.499872  3.251034  -0.248109
H  -3.366066  3.60664  -1.602311
H  -3.124193  -0.006107  0.19491
H  1.416934  0.302559  1.723701
H  0.357771  -2.019258  1.413634
C  -1.949206  -2.085088  1.139998
O  -0.909897  -2.681855  1.464439
C  -3.286638  -2.715544  1.4299
H  -3.880027  -2.04206  2.066015
H  -3.84282  -2.847091  0.490002
H  -3.158558  -3.682671  1.928724
