54
charge=0 multiplicity=1
C  2.32226  -0.147276  3.690066
H  2.99384  -0.957914  3.370218
H  1.967357  -0.35311  4.707807
H  2.921427  0.776444  3.724237
C  1.170403  -0.006041  2.739427
C  -0.110628  0.235583  3.215958
H  -0.237843  0.251331  4.297957
C  -1.254589  0.578541  2.448052
C  -2.478774  0.965584  3.239513
H  -2.765512  2.006385  3.026379
H  -2.301015  0.861585  4.316185
H  -3.343797  0.34632  2.960917
C  -2.455394  1.214062  0.529992
C  -3.59652  0.456222  0.245583
C  -4.705011  1.050924  -0.354726
H  -5.586045  0.443439  -0.575669
C  -4.693584  2.407378  -0.672796
H  -5.562367  2.869706  -1.146448
C  -3.562614  3.169738  -0.378146
H  -3.543211  4.236164  -0.61646
C  -2.45286  2.579306  0.218516
C  2.550685  -0.119878  0.688449
C  2.633312  -1.070182  -0.356684
C  3.635932  -0.956196  -1.335664
H  3.663297  -1.686157  -2.146848
C  4.580575  0.050553  -1.249958
H  5.364966  0.136495  -2.004522
C  4.533556  0.962733  -0.178657
H  5.285908  1.752724  -0.110802
C  3.532766  0.899133  0.770181
C  0.463268  2.994726  -1.687524
C  -1.41505  -2.247434  -0.417842
H  -2.23474  -2.224017  0.304601
C  -0.580601  -3.33182  -0.430489
H  -0.723295  -4.128135  0.304267
C  0.425847  -3.49906  -1.445785
H  0.99851  -4.421174  -1.546975
C  0.616793  -2.460443  -2.30148
C  -0.053876  -1.199698  -2.177869
H  0.013829  -0.547266  -3.052447
C  -1.255105  -1.132181  -1.33005
H  -2.145697  -0.58393  -1.65507
N  -1.297807  0.635116  1.122113
N  1.37618  -0.140259  1.430553
N  0.348985  1.692963  -1.150073
Nb  0.285714  0.130954  -0.342962
H  -0.518718  3.504279  -1.70571
H  1.160336  3.63102  -1.110539
H  0.828667  2.965627  -2.730382
H  -1.560279  3.16381  0.447711
H  -3.611872  -0.605104  0.497571
H  2.002711  -1.965181  -0.329697
H  3.465283  1.646055  1.563001
F  1.525053  -2.558147  -3.2803
