37
charge=0 multiplicity=1
Fe  -0.651657  -0.022027  -0.172975
P  -0.405885  -1.594985  -1.697841
P  -0.707189  1.902525  -1.285201
N  -0.257958  -1.45237  1.098207
N  -0.34624  1.095799  1.391496
H  0.036477  -1.710637  3.18759
H  -0.280829  0.867479  3.504962
H  -1.536417  -1.031324  2.662475
C  -0.450544  -1.027938  2.470554
H  1.188473  0.34643  2.645809
C  0.081617  0.398474  2.569987
H  0.595454  -3.282039  1.527896
H  0.082846  3.003849  2.124493
C  0.269896  -2.559224  0.761788
C  -0.187324  2.407583  1.237322
H  0.205245  -3.911374  -0.914632
C  0.49208  -2.874264  -0.680238
H  1.567473  -2.765335  -0.892282
H  0.231738  2.038899  -2.344952
H  -1.857038  2.381926  -1.984863
H  0.437595  -1.414698  -2.815799
H  -1.409412  -2.406599  -2.310384
C  -2.389145  -0.046346  0.036025
O  -3.531772  -0.03253  0.156028
O  1.244464  -0.047293  -0.706564
C  2.344997  0.474929  -0.053301
C  3.291416  -0.64093  0.392463
C  3.06793  1.469589  -0.959071
H  2.047857  1.037417  0.857002
H  2.786111  -1.325886  1.092081
H  3.620468  -1.226798  -0.482846
H  4.19014  -0.248636  0.895603
H  2.400177  2.311432  -1.195175
H  3.978069  1.87623  -0.488125
H  3.351356  0.976246  -1.903375
C  -0.351267  3.042033  0.023071
H  -0.286479  4.124482  -0.083145
