43
charge=0 multiplicity=1
C  -0.656116  4.007117  -0.030448
C  0.647103  3.519908  -0.011506
C  0.915754  2.151518  -0.158839
C  -0.142716  1.243619  -0.363808
C  -1.464189  1.747456  -0.292725
C  -1.717914  3.112776  -0.141239
C  2.321286  1.663234  0.075214
C  2.412997  0.830606  1.357143
N  2.010592  -0.561271  1.1837
Pt  0.076238  -0.837147  -0.64341
C  1.427396  -0.565091  -2.227362
C  -2.592288  0.744858  -0.29763
P  -1.91965  -0.732736  0.579865
H  1.480309  4.213499  0.139598
H  -2.748771  3.477301  -0.102213
H  -0.845622  5.078007  0.077026
H  -2.835303  0.410482  -1.321551
H  -3.514269  1.132373  0.166022
H  2.68817  1.065322  -0.7714
H  2.997916  2.52622  0.171185
H  3.444806  0.870972  1.76718
C  -3.183845  -2.039466  0.396075
C  -2.047501  -0.259347  2.342634
H  1.758204  1.288042  2.114567
C  3.105885  -1.353573  0.657641
C  1.526947  -1.13729  2.421672
H  1.559194  0.500646  -2.46181
H  2.408527  -1.014162  -2.005687
H  1.047979  -1.058179  -3.135369
H  -0.544032  -1.896898  -1.609332
H  2.76183  -2.372276  0.431873
H  3.48218  -0.914582  -0.274876
H  3.949587  -1.408078  1.378427
H  1.185422  -2.167294  2.244333
H  2.310563  -1.160244  3.209631
H  0.677643  -0.553411  2.798941
H  -3.089615  -0.032732  2.616168
H  -1.672788  -1.07127  2.981784
H  -1.42982  0.636196  2.502286
H  -4.168014  -1.70549  0.758957
H  -3.261283  -2.312611  -0.66608
H  -2.875059  -2.932541  0.95867
H  0.246419  -2.459195  -0.802834
