31
charge=0 multiplicity=1
Cu  0.745009  -1.232842  0.348125
C  -1.938449  -1.298768  -0.549301
B  -1.802042  0.201605  -0.118278
O  -1.128754  1.168709  -0.843553
O  -2.274091  0.69155  1.069121
C  -1.291111  2.404817  -0.171359
C  -1.827583  2.021366  1.216757
H  -2.656583  2.666149  1.546322
H  -1.04083  2.05953  1.992375
H  -2.002836  3.03342  -0.733006
H  -0.329586  2.942622  -0.128688
C  -3.368973  -1.768719  -0.527231
O  -4.3364  -1.062228  -0.659473
C  -0.97443  -2.136031  0.318334
H  -0.897087  -3.169289  -0.068147
H  -1.379583  -2.208709  1.344091
H  -1.629551  -1.363177  -1.610977
H  -3.487377  -2.877285  -0.373022
P  2.447854  0.16766  0.109606
C  2.449222  1.558531  1.30138
H  2.618883  1.172651  2.317024
H  3.226154  2.300086  1.058726
H  1.464322  2.046691  1.285221
C  2.303022  1.002938  -1.511019
H  2.483809  0.268225  -2.309371
H  1.269902  1.365496  -1.621255
H  3.017453  1.834416  -1.613513
C  4.18735  -0.401676  0.148353
H  4.887019  0.424533  -0.052234
H  4.410832  -0.834154  1.134478
H  4.329811  -1.187631  -0.607472
