65
charge=1 multiplicity=1
N  0.626396  2.186233  0.340414
N  1.363944  -2.017751  -0.52145
C  -0.192439  0.657812  -1.900621
H  0.788046  1.022272  -2.235881
H  -0.675351  0.086822  -2.703773
C  -1.093254  1.64453  -1.306816
C  -0.728596  2.36562  -0.132468
C  -1.647281  3.200107  0.521499
H  -1.347506  3.755988  1.410093
C  -2.939966  3.337246  0.03897
H  -3.646164  3.992662  0.551962
C  -3.321832  2.647428  -1.118781
H  -4.332135  2.766603  -1.516631
C  -2.42147  1.819539  -1.765377
H  -2.722924  1.290028  -2.672186
C  0.871085  2.61684  1.717457
H  0.799469  3.713117  1.817315
H  1.889737  2.321447  1.997897
H  0.160633  2.149319  2.409412
C  1.612588  2.845212  -0.533832
H  1.38797  2.653868  -1.587259
H  2.617873  2.469205  -0.305508
H  1.583397  3.935585  -0.370808
C  1.637155  -0.668252  2.02333
H  1.941786  -0.096261  2.909971
H  1.512614  -1.71429  2.334656
C  2.603341  -0.465651  0.917647
C  2.45288  -1.085322  -0.355836
C  3.340808  -0.782899  -1.400544
H  3.222765  -1.263299  -2.371032
C  4.385646  0.107267  -1.20915
H  5.071664  0.322998  -2.030398
C  4.56691  0.704808  0.041756
H  5.403836  1.386311  0.208965
C  3.687459  0.425683  1.074112
H  3.844324  0.879548  2.055858
C  1.591179  -3.280365  0.201045
H  0.677054  -3.887998  0.177307
H  1.879152  -3.107045  1.241762
H  2.40302  -3.848556  -0.283195
C  1.053507  -2.354366  -1.915937
H  0.930374  -1.447437  -2.514222
H  0.111773  -2.917308  -1.94227
H  1.8400  -2.99004  -2.357552
Sc  0.143031  -0.092227  0.193284
C  -1.72055  -2.414692  1.332072
C  -2.146527  -3.287128  0.16493
N  -1.759022  -0.985848  0.987909
C  -3.516624  -2.884228  -0.364153
C  -3.542724  -1.391893  -0.666015
C  -3.105588  -0.59069  0.543757
C  -1.202703  -0.142263  2.040139
H  -0.704251  -2.668427  1.669477
H  -2.391231  -2.584019  2.198051
H  -1.404251  -3.189486  -0.644174
H  -2.136008  -4.341185  0.482527
H  -3.77071  -3.471559  -1.259234
H  -4.285515  -3.118825  0.392274
H  -2.86772  -1.161778  -1.508887
H  -4.549213  -1.06518  -0.968161
H  -3.092987  0.484219  0.323588
H  -3.809479  -0.74862  1.384266
H  -1.698987  0.83767  2.040516
H  0.298778  -0.281709  2.077499
H  -1.286229  -0.588277  3.043886
