54
charge=0 multiplicity=1
C  2.920209  -0.618753  3.089641
H  3.717991  -1.161574  2.562469
H  2.643294  -1.165098  3.999852
H  3.339426  0.353972  3.388334
C  1.723503  -0.430292  2.199863
C  0.448313  -0.575508  2.761032
H  0.402624  -0.920604  3.793253
C  -0.727267  -0.004053  2.227267
C  -1.876062  0.228357  3.167647
H  -2.160361  1.29136  3.169543
H  -1.61752  -0.074193  4.189099
H  -2.764317  -0.33291  2.841979
C  -1.891441  1.21327  0.548367
C  -3.164923  0.693755  0.295634
C  -4.186616  1.537304  -0.135512
H  -5.17573  1.1188  -0.336153
C  -3.951298  2.898241  -0.321991
H  -4.75522  3.553855  -0.664217
C  -2.680114  3.416409  -0.074139
H  -2.483512  4.481662  -0.218479
C  -1.65421  2.578782  0.356107
C  3.14423  0.461901  0.50265
C  3.996229  -0.253358  -0.3464
C  5.193999  0.320157  -0.770974
H  5.853765  -0.245876  -1.432793
C  5.549664  1.603678  -0.36173
H  6.488396  2.048247  -0.699957
C  4.695087  2.322776  0.475107
H  4.960494  3.334314  0.792045
C  3.497485  1.758466  0.902132
C  0.244119  1.95507  -2.677635
C  -3.661467  -3.241986  -1.218641
H  -4.552771  -3.868119  -1.310737
C  -2.783822  -3.426807  -0.149073
H  -2.983963  -4.201121  0.596707
C  -1.65099  -2.620446  -0.037042
H  -0.984206  -2.780779  0.821261
C  -1.366556  -1.613877  -0.976062
C  -2.259315  -1.454756  -2.047823
H  -2.075545  -0.676121  -2.792752
C  -3.393456  -2.258717  -2.170761
H  -4.077499  -2.113182  -3.011456
N  -0.81064  0.383848  0.962273
N  1.903081  -0.085083  0.923605
N  0.283114  0.869643  -1.773314
Nb  0.440972  -0.438214  -0.6349
H  -0.541588  2.674831  -2.382017
H  1.207248  2.495458  -2.702384
H  0.021601  1.616402  -3.704966
H  -0.650561  2.967578  0.541399
H  -3.344884  -0.375274  0.417813
H  3.698323  -1.248376  -0.680293
H  2.812059  2.318324  1.543277
F  1.572473  -1.797201  -1.371617
