43
charge=0 multiplicity=1
C  -0.456098  3.913715  -0.129602
C  0.780272  3.283581  -0.222897
C  0.896932  1.895936  -0.381016
C  -0.273552  1.105657  -0.468712
C  -1.522879  1.754892  -0.293347
C  -1.610989  3.140995  -0.139863
C  2.282336  1.300847  -0.366107
C  2.51308  0.384369  0.831753
N  3.708026  -0.421417  0.722731
Pt  -0.337558  -0.937296  -0.67774
C  1.052966  -0.969291  -2.233084
C  -2.762212  0.90371  -0.155066
P  -2.176229  -0.60491  0.723299
H  1.694774  3.880715  -0.161295
H  -2.590466  3.610821  -0.012491
H  -0.515934  4.998615  -0.014584
H  -3.148259  0.566815  -1.132782
H  -3.575896  1.425485  0.374125
H  2.46239  0.709527  -1.271998
H  3.014199  2.122983  -0.366337
H  2.497522  0.985406  1.773672
C  -3.598123  -1.751292  0.784153
C  -1.958632  -0.063868  2.45327
H  1.654052  -0.306672  0.890581
C  4.928409  0.341411  0.745651
C  3.723103  -1.495372  1.679382
H  1.149566  0.007308  -2.727974
H  2.045246  -1.284937  -1.867824
H  0.725772  -1.699056  -2.99316
H  -0.69149  -2.5812  -1.16212
H  5.791708  -0.326216  0.599667
H  4.943258  1.078983  -0.069458
H  5.084539  0.891092  1.703855
H  4.596189  -2.144693  1.508213
H  3.767289  -1.146668  2.738092
H  2.816918  -2.110911  1.567735
H  -2.900591  0.30723  2.885535
H  -1.582648  -0.902078  3.057488
H  -1.20685  0.738454  2.464072
H  -4.473224  -1.281532  1.259048
H  -3.860737  -2.053612  -0.239896
H  -3.32361  -2.652583  1.351782
H  -0.1285  -2.665657  -0.520379
