51
charge=1 multiplicity=1
N  1.760571  1.533602  1.312311
C  2.273682  1.359138  -1.50785
H  3.281677  1.269694  -1.074606
H  2.328037  1.365696  -2.602424
C  1.423905  2.422318  -0.958558
C  1.109998  2.492425  0.432354
C  0.164681  3.407751  0.920708
H  -0.045309  3.46215  1.989239
C  -0.504738  4.252736  0.053306
H  -1.236361  4.963779  0.441103
C  -0.237204  4.185503  -1.319698
H  -0.765229  4.846178  -2.01069
C  0.69647  3.290388  -1.806685
H  0.902615  3.247136  -2.878506
C  1.038967  1.232116  2.551557
H  1.049559  2.077767  3.259083
H  1.524285  0.378718  3.047911
H  -0.011286  0.980823  2.335951
C  3.16734  1.850391  1.594148
H  3.687813  2.126479  0.670275
H  3.666354  0.979889  2.044821
H  3.231767  2.699507  2.294556
Sc  1.012798  0.085805  -0.232802
C  1.373724  -2.665445  1.272466
C  2.856305  -2.340537  1.177932
N  0.647652  -2.133936  0.107374
C  3.459613  -2.878273  -0.112566
C  2.644902  -2.409582  -1.309743
C  1.166792  -2.7292  -1.139479
C  -0.817849  -2.300038  0.236579
H  0.927564  -2.230931  2.181358
H  1.224676  -3.760416  1.338434
H  3.001592  -1.239509  1.225946
H  3.376697  -2.740151  2.061178
H  4.511522  -2.571885  -0.210917
H  3.456775  -3.98108  -0.080244
H  2.786705  -1.315529  -1.460165
H  3.007107  -2.862479  -2.244595
H  0.58194  -2.335565  -1.985417
H  1.001855  -3.823711  -1.123242
H  -1.083989  -3.365457  0.103519
H  -1.079663  -2.033991  1.275279
C  -1.598926  -1.389742  -0.711659
H  -1.384921  -1.710199  -1.748396
C  -1.124257  0.059006  -0.548175
H  -1.543861  0.479017  0.393025
H  -1.500972  0.709145  -1.355891
C  -3.096826  -1.584029  -0.491579
H  -3.408571  -2.629427  -0.647315
H  -3.382431  -1.292445  0.532407
H  -3.670573  -0.953978  -1.185791
