43
charge=0 multiplicity=1
C  1.231041  0.68825  2.332886
C  1.205108  1.540991  3.42507
C  -0.020557  2.121316  3.791687
C  -1.15241  1.848413  3.060769
C  -1.084871  0.987654  1.929328
N  0.122856  0.416175  1.604365
H  -0.073881  2.784714  4.658884
H  2.117773  1.735146  3.988879
H  -2.116732  2.282578  3.330546
C  -2.195417  0.77808  1.067113
H  -3.164352  1.159804  1.409343
C  2.500945  0.014943  1.89841
H  2.503435  -1.026435  2.266803
H  3.386693  0.521293  2.311507
P  -2.115012  -0.692274  0.038567
P  2.525332  -0.136069  0.050439
C  0.373624  -1.450642  -2.072752
O  0.443788  -1.892727  -3.143393
C  -1.168882  2.016706  -0.578259
C  -3.279857  -0.411726  -1.343498
C  -2.900675  -2.073931  0.948654
C  3.164251  1.482793  -0.511913
C  3.899186  -1.292765  -0.272652
C  0.542858  -2.408461  0.445287
O  0.710512  -3.444888  0.948306
Re  0.260703  -0.695775  -0.317961
N  -0.29475  1.329556  -0.983841
C  -1.911863  3.274613  -0.515723
H  3.23614  1.475877  -1.609153
H  4.148118  1.716621  -0.077342
H  2.435607  2.255515  -0.227729
H  4.025332  -1.39331  -1.360367
H  3.628139  -2.278906  0.130829
H  4.844709  -0.951039  0.175576
H  -2.968068  3.107059  -0.768431
H  -1.47415  4.000566  -1.218944
H  -1.864651  3.678741  0.505732
H  -2.882359  0.377564  -1.995592
H  -4.277149  -0.124088  -0.975776
H  -3.363864  -1.336493  -1.93258
H  -2.881314  -2.983151  0.329216
H  -3.939836  -1.835527  1.221532
H  -2.317909  -2.263691  1.860708
