23
charge=0 multiplicity=1
C  0.855682  -1.728345  -0.513865
C  0.758569  -1.49688  0.876542
C  1.69652  -0.492478  1.228712
C  2.36261  -0.094002  0.048727
C  1.838565  -0.849463  -1.031612
Ti  0.063186  0.505674  -0.3108
C  -1.683976  0.613287  1.480616
C  -2.30393  -0.210091  0.649439
C  -3.018324  -1.057668  -0.043605
N  -0.864223  0.560686  -1.710073
N  0.51719  2.311682  0.083485
H  1.864139  -0.08994  2.227468
H  0.080612  -2.011976  1.557727
H  3.124994  0.67957  -0.028849
H  2.132812  -0.764094  -2.076324
H  0.257453  -2.429634  -1.092751
H  -1.036725  0.232054  2.27669
H  -1.351122  0.403562  -2.591845
H  1.241221  2.636863  0.718719
H  0.150563  3.102334  -0.43865
H  -1.859187  1.691809  1.440493
H  -3.95785  -1.436937  0.372883
H  -2.698828  -1.391136  -1.031886
