65
charge=1 multiplicity=1
N  0.561997  2.110097  0.251501
N  1.44448  -1.899479  -0.35839
C  -0.531364  0.656253  -1.921449
H  0.444493  0.948691  -2.341542
H  -1.109319  0.116701  -2.682988
C  -1.297253  1.741451  -1.295175
C  -0.788176  2.436958  -0.164262
C  -1.573613  3.368605  0.525009
H  -1.168463  3.900037  1.385915
C  -2.87745  3.622803  0.124122
H  -3.481874  4.350654  0.668648
C  -3.40331  2.950592  -0.983824
H  -4.424954  3.153799  -1.312558
C  -2.627538  2.031919  -1.671639
H  -3.040018  1.511885  -2.539774
C  0.888662  2.482316  1.629489
H  0.91843  3.577631  1.758763
H  1.888855  2.096285  1.864838
H  0.157977  2.048821  2.32344
C  1.577778  2.68009  -0.648708
H  1.309023  2.507388  -1.69595
H  2.554189  2.219842  -0.444752
H  1.652054  3.769369  -0.491056
C  2.124026  -0.755498  2.320223
H  2.284828  0.047046  3.051633
H  2.461094  -1.689443  2.797191
C  2.891333  -0.466241  1.057999
C  2.584714  -1.015697  -0.212355
C  3.371123  -0.671916  -1.322426
H  3.145426  -1.084117  -2.304022
C  4.463043  0.178484  -1.193976
H  5.063023  0.420495  -2.073433
C  4.788629  0.705012  0.052464
H  5.648841  1.367119  0.168723
C  4.002317  0.38399  1.152368
H  4.253158  0.800175  2.131524
C  1.594752  -3.15413  0.400291
H  0.694056  -3.765682  0.263924
H  1.729484  -2.969583  1.468816
H  2.464947  -3.719897  0.027975
C  1.124423  -2.252844  -1.750415
H  0.973472  -1.354897  -2.359673
H  0.190581  -2.828382  -1.756873
H  1.915806  -2.877421  -2.19821
Sc  -0.056117  -0.123806  0.103816
C  -1.851791  -2.416644  1.231286
C  -2.213479  -3.374698  0.109123
N  -1.946017  -1.014539  0.813217
C  -3.588519  -3.061519  -0.466836
C  -3.673576  -1.59121  -0.855025
C  -3.292181  -0.703369  0.313882
C  -1.409907  -0.076389  1.805367
H  -0.83015  -2.603927  1.602486
H  -2.523661  -2.573025  2.09842
H  -1.461504  -3.295191  -0.694873
H  -2.165589  -4.407927  0.486668
H  -3.801653  -3.711326  -1.328952
H  -4.359315  -3.284908  0.291114
H  -2.996674  -1.382248  -1.701836
H  -4.689292  -1.330774  -1.189254
H  -3.315989  0.356868  0.031247
H  -4.009098  -0.838381  1.147452
H  -2.060033  0.804663  1.891738
H  1.027419  -0.840346  2.202147
H  -1.283728  -0.54198  2.795587
