50
charge=0 multiplicity=1
C  -3.927977  0.818153  -0.917291
C  -2.605998  0.43306  -1.132803
C  -1.572387  1.245169  -0.617656
C  -1.892519  2.282367  0.290151
C  -3.230961  2.637851  0.508557
C  -4.242737  1.940225  -0.138149
C  -0.76142  2.717331  1.069382
C  0.47857  2.852943  0.379291
C  0.709925  1.809946  -0.557903
C  2.018845  1.595243  -1.070931
C  3.012338  2.503395  -0.750813
C  2.765481  3.585991  0.119897
C  1.527946  3.731939  0.715011
H  -4.732939  0.20874  -1.338027
H  -3.468699  3.447309  1.203424
H  -5.286893  2.225909  0.005865
H  -0.937953  3.314117  1.969894
H  4.01825  2.358502  -1.155266
H  3.571981  4.285109  0.351176
H  1.350727  4.524944  1.445786
N  -0.259679  0.872617  -0.776926
Ru  0.332331  -0.632552  0.710849
C  -2.222639  -0.908948  -1.662772
H  -1.421141  -0.83877  -2.415483
H  -3.080793  -1.453177  -2.086705
C  2.282623  0.3007  -1.769215
H  1.525811  0.110221  -2.546455
H  3.284493  0.270715  -2.224725
P  -1.491363  -1.854549  -0.224458
P  2.10582  -1.111126  -0.558105
C  3.721716  -1.160675  0.29063
H  3.705133  -1.950125  1.055967
H  4.546117  -1.345971  -0.414722
H  3.868529  -0.196238  0.79692
C  2.194303  -2.569148  -1.666927
H  3.133106  -2.577964  -2.242701
H  2.125747  -3.488662  -1.068221
H  1.346067  -2.541677  -2.365186
C  -2.936135  -2.064468  0.884855
H  -3.790217  -2.535969  0.373182
H  -2.63485  -2.682937  1.743232
H  -3.23444  -1.075944  1.261353
C  -1.297369  -3.549906  -0.899631
H  -0.901407  -4.205388  -0.110022
H  -2.256161  -3.954541  -1.258946
H  -0.576856  -3.541038  -1.728485
C  0.747235  -1.849431  1.998378
O  0.996673  -2.63205  2.816841
H  -0.330324  0.977942  1.593851
H  1.41207  0.363891  1.374967
