51
charge=1 multiplicity=1
N  1.236521  1.334658  1.402061
C  2.031444  1.051556  -1.347453
H  2.922659  0.764805  -0.769777
H  2.250686  1.050923  -2.420697
C  1.326218  2.249509  -0.884403
C  0.872817  2.385616  0.462928
C  0.049706  3.45491  0.849742
H  -0.267454  3.554218  1.888366
C  -0.359313  4.3985  -0.076623
H  -0.994723  5.229645  0.234282
C  0.052163  4.276417  -1.409903
H  -0.266677  5.015331  -2.148359
C  0.866314  3.228919  -1.797486
H  1.186239  3.144747  -2.838676
C  0.315611  1.161223  2.526792
H  0.355885  2.0004  3.24109
H  0.586122  0.246013  3.073386
H  -0.723161  1.075396  2.167266
C  2.625565  1.413825  1.869483
H  3.302148  1.56783  1.020961
H  2.900277  0.48335  2.386558
H  2.745653  2.260206  2.566205
Sc  0.436407  0.017663  -0.232166
C  1.893238  -2.552174  1.192569
C  3.374131  -2.379353  0.910213
N  1.0647  -2.053702  0.082696
C  3.758062  -3.060935  -0.395922
C  2.904452  -2.523335  -1.535792
C  1.423232  -2.638193  -1.222071
C  -0.363156  -2.067683  0.293681
H  1.592123  -2.016368  2.107202
H  1.659373  -3.621347  1.358339
H  3.614334  -1.303544  0.852414
H  3.946529  -2.788441  1.756483
H  4.825667  -2.909121  -0.612773
H  3.610966  -4.150729  -0.298018
H  3.15493  -1.467375  -1.724284
H  3.103548  -3.067098  -2.471391
H  0.82059  -2.1321  -1.998803
H  1.103008  -3.698711  -1.226685
H  -0.850275  -2.986693  -0.056718
H  -0.5893  -1.906603  1.361349
C  -1.881019  -0.918366  -0.744358
H  -1.831411  -1.607676  -1.594952
C  -1.58216  0.435601  -1.023585
H  -2.048053  1.224368  -0.420387
H  -1.338331  0.722825  -2.054591
C  -2.945985  -1.258929  0.259806
H  -2.916381  -2.305038  0.594965
H  -2.896827  -0.603481  1.142854
H  -3.926975  -1.093621  -0.213108
