27
charge=0 multiplicity=1
C  -0.499023  0.235114  0.124529
N  0.395805  0.10189  -0.858826
C  -0.176522  0.489307  -2.143331
C  -1.673687  0.445295  -1.851488
N  -1.690911  0.546986  -0.400973
C  1.822623  0.044458  -0.657514
C  -2.915853  0.580702  0.355087
Ru  -0.237781  0.096576  2.100622
C  -1.031053  0.131884  4.092679
C  0.181843  0.103668  4.380793
Cl  0.777841  2.242928  1.999125
C  1.338718  -0.69135  2.496092
Cl  -1.400438  -1.990292  2.029859
H  0.159915  1.506579  -2.416351
H  0.127096  -0.202324  -2.942666
H  -2.130799  -0.508477  -2.174655
H  -2.229595  1.271883  -2.318417
H  2.18198  0.948373  -0.139572
H  2.08376  -0.837618  -0.055305
H  2.315419  -0.049483  -1.634114
H  -3.657071  1.189098  -0.182505
H  -3.310935  -0.430266  0.544339
H  -2.737954  1.067371  1.327076
H  2.275386  -0.106159  2.536773
H  1.397188  -1.767174  2.738533
H  -2.095093  0.172239  4.282935
H  1.096437  0.15048  4.950948
