35
charge=0 multiplicity=1
C  0.942343  1.074099  -0.225828
C  2.070815  0.626687  -0.023159
N  1.170903  -1.624931  -2.951497
N  0.251225  -1.581438  -2.292285
N  -0.8077  -1.50358  -1.690939
C  -0.790572  -1.814635  -0.262222
H  -0.715651  -2.910537  -0.122491
H  0.083216  -1.346097  0.219486
Ag  -0.984712  1.578519  -0.623769
P  -3.255171  2.085375  -1.082439
C  3.375115  0.088265  0.199045
C  4.046865  0.295286  1.418472
C  4.013433  -0.674463  -0.797784
C  5.311253  -0.243825  1.631717
H  3.558544  0.887934  2.194706
C  5.277747  -1.210754  -0.576532
H  3.498645  -0.838576  -1.746765
C  5.932692  -0.999192  0.636966
H  5.818333  -0.072315  2.584677
H  5.75823  -1.800049  -1.361675
H  6.926069  -1.421391  0.806975
C  -2.054374  -1.318322  0.383475
C  -3.291752  -1.455012  -0.257337
C  -2.010272  -0.729695  1.65161
C  -4.463237  -1.034855  0.369527
H  -3.324697  -1.894344  -1.257151
C  -3.182167  -0.305632  2.278057
H  -1.044453  -0.592546  2.144642
C  -4.412629  -0.461806  1.641793
H  -5.424184  -1.158984  -0.136609
H  -3.130606  0.152497  3.268574
H  -5.331834  -0.137073  2.135619
H  -3.647113  3.401635  -1.435764
H  -3.90067  1.387105  -2.131162
H  -4.195622  1.845501  -0.052489
