38
charge=0 multiplicity=1
C  2.706973  3.047686  -0.716421
C  2.343707  3.263169  0.616218
C  0.982188  3.311474  0.926093
C  0.011295  3.095869  -0.08767
C  0.398249  2.883325  -1.418708
C  1.764291  2.853587  -1.727024
Pd  -0.817698  0.951173  -0.015683
C  -1.369956  3.409789  0.500003
H  -0.365278  2.80292  -2.19524
H  2.089696  2.694433  -2.756662
H  3.770153  3.029521  -0.971338
H  3.10349  3.435205  1.381564
P  0.857284  -0.700614  -0.187835
C  0.434017  -2.041268  -1.357335
C  2.567921  -0.289291  -0.698744
C  1.151358  -1.576629  1.390552
N  0.363971  3.642411  2.094391
H  0.847597  3.574922  2.979254
C  -1.068595  3.403139  2.012101
N  -2.297796  2.35668  0.177158
O  -2.729813  2.640896  -1.118542
C  -3.907941  1.929702  -1.402933
H  -4.702191  2.182975  -0.681873
H  -4.209216  2.228585  -2.416508
H  -3.734202  0.840833  -1.366369
H  -1.341846  2.406577  2.409719
H  -1.637656  4.16762  2.559115
H  -1.748913  4.386119  0.146278
I  -2.498833  -0.947694  0.740884
H  2.563783  0.157714  -1.701687
H  3.191577  -1.196742  -0.704109
H  2.995077  0.445515  -0.00316
H  0.344674  -1.619787  -2.369349
H  -0.540148  -2.460839  -1.069186
H  1.203861  -2.828375  -1.354953
H  1.881585  -2.390606  1.262955
H  0.193725  -1.977519  1.751353
H  1.529855  -0.858897  2.13307
