39
charge=0 multiplicity=1
Os  0.000103  -0.12305  -0.137696
H  0.098159  0.986883  1.267967
H  0.176003  1.700554  -0.82934
P  -2.345522  0.047307  -0.154671
P  2.347393  -0.194177  -0.155147
C  3.095762  -1.775781  -0.684899
H  4.195645  -1.737851  -0.659458
H  2.741403  -2.576258  -0.019058
H  2.752195  -2.005836  -1.70322
C  3.144521  1.03315  -1.253461
H  2.786143  2.035704  -0.979423
H  4.241825  0.996451  -1.17745
H  2.841842  0.832746  -2.291406
C  3.134909  0.117255  1.464084
H  2.814908  -0.665853  2.166941
H  4.233565  0.123479  1.395905
H  2.770413  1.079817  1.851802
C  -3.016363  1.608729  -0.830444
H  -4.115838  1.62783  -0.784115
H  -2.609539  2.441229  -0.238759
H  -2.692438  1.724125  -1.874793
C  -3.2365  -1.237888  -1.103054
H  -2.962704  -2.224519  -0.702019
H  -4.328315  -1.107341  -1.047738
H  -2.907993  -1.197878  -2.151171
C  -3.115931  -0.048637  1.499136
H  -2.687863  0.750523  2.121107
H  -4.210198  0.058458  1.447116
H  -2.863279  -1.016907  1.95528
C  -0.085705  -1.691703  0.856589
O  -0.138742  -2.688978  1.441591
H  1.26824  3.605681  0.269046
H  -0.312362  3.867503  -0.030728
H  -1.182637  2.484678  1.775473
H  0.776126  2.414421  2.372861
B  -0.013123  2.341265  1.434401
N  0.366176  3.144012  0.190214
H  0.040735  1.11333  -1.463483
H  -0.032746  -1.086736  -1.480146
