37
charge=0 multiplicity=1
Fe  -0.638876  -0.069852  -0.206758
P  -0.686002  -1.731659  -1.728652
P  -0.7393  1.886078  -1.306839
N  -0.282417  -1.491887  1.058391
N  -0.260067  1.036059  1.342347
H  0.146277  -1.775307  3.112644
H  -0.242854  0.827611  3.456676
H  -1.461062  -1.10366  2.739776
C  -0.39668  -1.09315  2.432572
H  1.240731  0.29509  2.636843
C  0.134857  0.336939  2.539764
H  0.474074  -3.412279  1.33959
H  0.008422  2.953247  2.124781
C  0.126841  -2.659276  0.611962
C  -0.21779  2.359177  1.22371
H  0.456087  -3.94165  -1.11241
C  0.169571  -2.951925  -0.755038
H  1.571879  -1.173749  -0.660256
H  0.183012  2.132244  -2.368516
H  -1.910094  2.299727  -2.007008
H  0.003901  -1.596208  -2.966308
H  -1.892895  -2.281955  -2.259075
C  -2.350163  -0.060832  0.042494
O  -3.486053  -0.0542  0.207419
O  1.424353  -0.207363  -0.661565
C  2.511889  0.475115  -0.027152
C  3.414663  -0.52682  0.66328
C  3.226268  1.322963  -1.059362
H  2.056757  1.13641  0.725117
H  2.84768  -1.121685  1.394989
H  3.871737  -1.214333  -0.068134
H  4.228788  -0.014153  1.195886
H  2.525546  2.036669  -1.515319
H  4.040089  1.898019  -0.592421
H  3.654446  0.693555  -1.855341
C  -0.433549  3.013858  0.024285
H  -0.441551  4.100757  -0.051388
