23
charge=0 multiplicity=1
C  0.776293  -1.689999  -0.081001
C  1.081663  -1.254064  1.231533
C  2.097557  -0.271407  1.138863
C  2.408969  -0.090612  -0.228604
C  1.590778  -0.96821  -0.984405
Ti  0.155655  0.569183  0.039707
C  -1.600109  0.208495  1.106802
C  -2.116834  -0.104105  -0.264766
C  -3.140668  -0.934511  -0.561794
N  -1.280637  0.522614  -1.199818
N  0.700384  2.341487  0.331105
H  2.531437  0.278433  1.973109
H  0.613632  -1.609144  2.147107
H  3.127818  0.619736  -0.634461
H  1.57243  -1.052834  -2.07048
H  -0.003913  -2.402286  -0.349476
H  -1.809862  -0.552855  1.864506
H  -1.518512  0.370539  -2.174781
H  1.574849  2.7288  0.669948
H  0.061493  3.096079  0.086958
H  -1.908258  1.213169  1.438284
H  -3.748098  -1.36775  0.233769
H  -3.416395  -1.146148  -1.598997
