53
charge=0 multiplicity=1
C  3.930998  -0.992283  -0.993604
C  2.548805  -1.081367  -0.646983
N  1.895728  0.082029  -0.310898
C  2.542281  1.266354  -0.267362
C  3.878577  1.387059  -0.611345
C  4.572217  0.221707  -0.984362
C  1.854489  -2.308819  -0.586303
P  0.0925  -2.267624  -0.486071
Ir  -0.251483  -0.015985  -0.078907
P  -0.037069  2.272576  -0.002646
C  1.775578  2.444378  0.273003
C  -2.308629  -0.036108  -0.067242
C  -3.061027  -0.15266  -1.254943
C  -4.456373  -0.1395  -1.259049
C  -5.167109  -0.005409  -0.067421
C  -4.455771  0.116179  1.124518
C  -3.060151  0.1010  1.11824
O  2.132048  -1.797539  2.360366
O  1.720176  0.850117  2.999631
H  4.456582  -1.904936  -1.27937
H  4.373252  2.357324  -0.566299
H  5.62707  0.282492  -1.265737
C  -0.661783  -2.936101  -2.011928
C  -0.462112  -3.46253  0.784286
H  1.886496  2.406119  1.372526
H  2.180886  3.400819  -0.089247
H  2.090503  -2.003571  1.391919
H  2.380776  -3.218818  -0.888715
C  -0.438162  3.188189  -1.523849
C  -0.81089  3.229812  1.339233
H  -2.537736  -0.255703  -2.209436
H  -4.993525  -0.23403  -2.207556
H  -6.259883  0.004674  -0.067758
H  -4.990681  0.222583  2.073012
H  -2.541729  0.203263  2.07758
H  -0.475876  -0.541536  1.621837
H  1.298888  0.695228  3.85087
H  1.969158  -0.056437  2.710188
H  2.969285  -2.18392  2.638331
H  -0.318922  0.140975  -1.653132
H  0.059156  0.101321  1.723629
H  -0.359352  -3.981768  -2.17444
H  -1.75795  -2.87599  -1.933234
H  -0.330418  -2.322346  -2.860226
H  -0.183049  -4.490903  0.506717
H  0.025224  -3.200541  1.734308
H  -1.554449  -3.398976  0.899165
H  -0.554395  4.298803  1.289449
H  -1.901834  3.105037  1.274253
H  -0.464591  2.810629  2.294794
H  -0.214292  4.261416  -1.430087
H  0.141183  2.756255  -2.3518
H  -1.507049  3.047345  -1.742766
