41
charge=0 multiplicity=1
C  -0.933188  -2.379708  -0.165803
O  -1.203773  -3.535303  0.094333
N  0.225533  -1.719315  0.070721
O  1.179343  -2.377668  0.81089
C  0.89546  -2.337347  2.211632
H  0.648621  -1.308305  2.517572
H  0.054899  -3.013986  2.422095
H  1.801945  -2.698586  2.715316
C  -1.891431  -1.409071  -0.799131
C  -2.792022  -1.796676  -1.786159
C  -3.61684  -0.837616  -2.370645
C  -3.562627  0.503858  -1.970679
C  -2.683937  0.894279  -0.969753
C  -1.843248  -0.062968  -0.375972
H  -2.825593  -2.844316  -2.092394
H  -4.314692  -1.135144  -3.157553
H  -4.223705  1.237214  -2.437548
H  -2.652588  1.922175  -0.603035
H  -1.401403  0.191175  0.630419
Pd  0.351274  0.199262  -0.366571
O  0.378833  2.127075  -0.931651
C  -0.141802  3.023297  -0.177196
C  -0.045015  4.425121  -0.730072
H  1.003287  4.662461  -0.960053
H  -0.603108  4.484254  -1.6763
H  -0.450364  5.146569  -0.011208
O  -0.704632  2.811525  0.901955
O  2.431733  0.379693  -0.499047
C  3.43244  -0.330338  -0.37564
O  3.440424  -1.556667  0.033254
C  4.781313  0.218342  -0.714317
H  4.696587  1.258333  -1.04531
H  5.435804  0.145958  0.166268
H  5.232033  -0.398916  -1.505207
H  2.522991  -1.896122  0.314384
O  -0.685018  0.696429  2.523117
H  -0.610273  1.522425  1.98775
C  -1.644993  0.896679  3.518911
H  -1.787847  -0.048727  4.065281
H  -1.338917  1.664522  4.254453
H  -2.627746  1.197467  3.108561
