33
charge=0 multiplicity=1
C  0.177448  2.911763  0.677848
N  0.270039  1.607482  0.434739
N  1.392585  1.161741  1.012052
C  2.024469  2.177795  1.627761
C  1.277327  3.331043  1.440085
B  1.794579  -0.325968  0.916632
N  0.670823  -1.181114  1.537292
N  -0.574429  -1.126333  1.050553
C  -1.331323  -1.942018  1.778382
C  -0.552227  -2.551343  2.772951
C  0.71913  -2.032329  2.578577
Pt  -0.972041  0.198213  -0.637523
N  1.945663  -0.701778  -0.571731
N  0.917458  -0.565022  -1.417169
C  1.331029  -0.94002  -2.623925
C  2.674769  -1.33746  -2.56284
C  3.022937  -1.16612  -1.231349
H  0.649731  -0.904045  -3.471999
H  3.959774  -1.341172  -0.707387
H  3.303421  -1.696004  -3.373319
H  2.837828  -0.514938  1.504361
H  1.65328  -2.207963  3.107126
H  2.960197  2.008323  2.155466
H  -0.870142  -3.265954  3.527218
H  1.497053  4.331494  1.802635
H  -2.391483  -2.049274  1.556468
H  -0.668707  3.479277  0.295787
H  -1.517667  -1.629105  -2.438752
H  -1.258486  1.150411  -1.822273
C  -2.116552  -1.164505  -1.639091
H  -2.430893  -1.960294  -0.944899
H  -2.306442  0.756397  -0.089326
H  -3.015707  -0.723717  -2.090775
