54
charge=0 multiplicity=1
C  2.595443  -0.89684  2.870328
H  3.41134  -1.347587  2.287225
H  2.334498  -1.554936  3.708847
H  2.978792  0.047527  3.285598
C  1.395802  -0.646152  1.999516
C  0.117323  -0.867483  2.54691
H  0.081313  -1.320522  3.537257
C  -1.051044  -0.200285  2.112357
C  -2.145446  0.00846  3.122771
H  -2.449824  1.064981  3.152326
H  -1.816511  -0.295349  4.12341
H  -3.039716  -0.574887  2.856488
C  -2.140942  1.263072  0.552659
C  -3.504993  0.961889  0.484327
C  -4.423699  1.941311  0.112724
H  -5.486183  1.690508  0.062639
C  -3.995126  3.230118  -0.199826
H  -4.717705  3.994509  -0.494177
C  -2.635166  3.533874  -0.135988
H  -2.286553  4.541183  -0.376978
C  -1.71378  2.558428  0.23496
C  2.771079  0.429147  0.367746
C  3.590165  -0.161742  -0.60238
C  4.74559  0.491016  -1.027232
H  5.377816  0.021461  -1.784914
C  5.099281  1.729724  -0.493936
H  6.006481  2.235994  -0.831644
C  4.28319  2.320939  0.470505
H  4.545755  3.295986  0.888559
C  3.124096  1.67828  0.89616
C  0.25508  1.83294  -2.745337
C  -2.786094  -2.206712  -0.591411
H  -3.848049  -1.999992  -0.417431
C  -2.187429  -3.233293  0.082663
H  -2.730592  -3.897814  0.756816
C  -0.730278  -3.283946  -0.049842
H  -0.058048  -3.485031  0.791086
C  -0.315339  -2.847413  -1.251738
C  -0.917909  -2.025283  -2.188231
H  -0.698379  -2.048261  -3.259096
C  -2.041149  -1.359127  -1.51749
H  -2.586984  -0.589158  -2.068873
N  -1.159631  0.29618  0.886557
N  1.559618  -0.180125  0.768306
N  0.192154  0.781423  -1.805035
Nb  0.01617  -0.565374  -0.714482
H  -0.487489  2.616652  -2.506246
H  1.256221  2.299735  -2.751095
H  0.046074  1.472879  -3.768566
H  -0.644958  2.777611  0.276457
H  -3.841855  -0.049153  0.713087
H  3.298197  -1.13126  -1.010184
H  2.464667  2.145271  1.632025
F  1.431208  -2.215511  -1.012901
