41
charge=0 multiplicity=1
C  1.045663  -0.656441  -0.970748
C  2.341588  -0.119302  -0.889025
C  3.43961  -0.739653  -1.495178
C  3.246895  -1.932792  -2.17815
C  1.959357  -2.473473  -2.273663
C  0.861506  -1.838893  -1.691976
H  4.42377  -0.270298  -1.421736
H  4.090981  -2.442115  -2.648067
H  1.808352  -3.409047  -2.819325
H  -0.13689  -2.263703  -1.804669
C  2.478343  1.154485  -0.170879
O  3.355468  1.967727  -0.235624
N  1.301115  1.346835  0.679242
O  1.237008  2.580415  1.28464
C  0.811504  3.58118  0.385842
H  -0.170771  3.324806  -0.043996
H  0.719904  4.492652  0.98973
H  1.552767  3.747298  -0.411722
Pd  -0.355692  0.384225  -0.098761
O  1.131656  -0.88184  2.261097
C  2.157404  -1.840695  2.236172
H  1.922325  -2.70332  2.883968
H  2.358925  -2.214605  1.215923
H  3.077477  -1.372977  2.617449
O  -1.876336  -0.965021  -0.519239
O  -1.866029  1.689047  0.809476
C  -3.083654  1.654836  0.631011
O  -3.69455  0.739953  -0.061035
C  -3.984362  2.69408  1.217199
H  -4.618281  3.12187  0.427642
H  -4.654667  2.217667  1.948047
H  -3.394371  3.475827  1.706648
H  -3.031891  0.02511  -0.360775
H  1.355283  0.624204  1.454384
H  0.31899  -1.293456  1.888725
C  -1.898645  -1.986163  0.298722
O  -1.071741  -2.187987  1.175571
C  -3.06048  -2.920315  0.076865
H  -4.002861  -2.376925  0.246463
H  -3.071826  -3.265289  -0.96703
H  -2.999047  -3.774665  0.760201
