19
charge=0 multiplicity=1
C  -1.376665  0.056997  -1.366425
C  -2.679071  -0.096189  -0.931906
C  -2.95636  -0.60488  0.344952
C  -1.959007  -1.029407  1.230165
C  -0.596084  -0.968149  0.971778
Rh  0.286668  0.05745  -0.40593
P  2.430389  -0.625377  0.330818
P  0.180775  2.20703  0.213431
H  0.414384  2.403219  1.60069
H  0.926746  3.344987  -0.228076
H  -1.1026  2.811294  0.142956
H  3.230375  -1.338437  -0.606903
H  3.501386  0.182079  0.825193
H  2.490868  -1.590734  1.376451
H  -4.002568  -0.734648  0.641403
H  -2.286046  -1.475521  2.177805
H  -3.521034  0.077835  -1.612453
H  -1.215154  0.289504  -2.438961
H  0.04482  -1.311451  1.801309
