37
charge=0 multiplicity=1
Fe  -0.668571  -0.049608  -0.198893
P  -0.642951  -1.706318  -1.702882
P  -0.664983  1.895986  -1.295488
N  -0.367175  -1.499245  1.086302
N  -0.313799  1.038664  1.369888
H  -0.069946  -1.784457  3.167332
H  -0.28571  0.819098  3.482768
H  -1.620022  -1.037429  2.673957
C  -0.539153  -1.083299  2.454918
H  1.163149  0.215114  2.642636
C  0.060862  0.320334  2.557692
H  0.648344  -3.282504  1.402396
H  0.078573  2.937235  2.143593
C  0.255285  -2.548758  0.679483
C  -0.172858  2.353999  1.242413
H  0.973931  -3.604033  -1.098863
C  0.576337  -2.653119  -0.73075
H  1.317993  -1.553865  -0.737537
H  0.281769  2.067284  -2.346078
H  -1.807407  2.368061  -2.007515
H  -0.05695  -1.623424  -2.991285
H  -1.739198  -2.559547  -2.019228
C  -2.396433  0.024085  0.014732
O  -3.535164  0.090144  0.143427
O  1.322178  -0.234848  -0.630011
C  2.414642  0.411935  -0.03922
C  3.385595  -0.611764  0.537942
C  3.096711  1.322867  -1.049978
H  2.055457  1.046467  0.792712
H  2.888495  -1.246163  1.288483
H  3.776102  -1.267562  -0.257861
H  4.242723  -0.12088  1.024091
H  2.399709  2.101033  -1.39256
H  3.974567  1.82442  -0.612391
H  3.426391  0.740151  -1.925226
C  -0.32589  3.011403  0.036337
H  -0.263179  4.095874  -0.047257
