43
charge=0 multiplicity=1
C  -0.506944  3.99873  -0.103774
C  0.729347  3.36641  -0.186348
C  0.843265  1.974507  -0.297167
C  -0.318065  1.164427  -0.342201
C  -1.564343  1.832447  -0.211518
C  -1.658786  3.22283  -0.0992
C  2.233182  1.389517  -0.329605
C  2.514418  0.446044  0.835984
N  3.636821  -0.43786  0.605913
Pt  -0.382768  -0.941227  -0.501946
C  1.298793  -1.293553  -1.918743
C  -2.817596  0.995318  -0.106829
P  -2.248113  -0.541808  0.708989
H  1.643647  3.966843  -0.157226
H  -2.640711  3.694675  0.001203
H  -0.568528  5.086411  -0.01941
H  -3.206315  0.701649  -1.097603
H  -3.628072  1.502158  0.441423
H  2.383671  0.829638  -1.262328
H  2.962105  2.214492  -0.340026
H  2.633614  1.035868  1.776341
C  -3.628415  -1.73056  0.670568
C  -2.052644  -0.106363  2.466901
H  1.622071  -0.187421  0.979438
C  4.899978  0.244091  0.492171
C  3.68205  -1.511133  1.563804
H  1.177243  -0.447626  -2.607297
H  2.231263  -1.215307  -1.340744
H  1.366004  -2.200506  -2.544332
H  0.272353  -2.254087  -1.264549
H  5.6968  -0.477321  0.253898
H  4.871042  0.983512  -0.320852
H  5.194141  0.777406  1.426132
H  4.491102  -2.213575  1.30909
H  3.855023  -1.163558  2.60874
H  2.731586  -2.067118  1.548313
H  -3.009507  0.211228  2.908402
H  -1.660395  -0.971907  3.019445
H  -1.322938  0.713092  2.532363
H  -4.526352  -1.313052  1.151147
H  -3.853724  -1.981254  -0.375481
H  -3.331756  -2.652454  1.190867
H  -0.534832  -2.614976  -0.608327
