53
charge=0 multiplicity=1
C  3.877363  -0.959813  -0.999511
C  2.552054  -1.014109  -0.56546
N  1.879584  0.117432  -0.271012
C  2.502266  1.314333  -0.305323
C  3.823915  1.421291  -0.732975
C  4.514353  0.271078  -1.10065
C  1.862126  -2.32352  -0.32288
P  0.01418  -2.187711  -0.334061
Ir  -0.27904  0.053471  -0.106501
P  -0.092714  2.312872  -0.043997
C  1.736905  2.50274  0.202868
C  -2.326045  0.002909  -0.132977
C  -3.057632  0.061308  -1.338752
C  -4.452924  0.02908  -1.367755
C  -5.183755  -0.063657  -0.184403
C  -4.491711  -0.124049  1.02418
C  -3.096461  -0.091384  1.045246
O  2.250332  -2.147652  2.788111
O  1.608054  0.553374  2.863997
H  4.39811  -1.88541  -1.250353
H  4.301856  2.401503  -0.768995
H  5.547467  0.333277  -1.450177
C  -0.554006  -2.976829  -1.876524
C  -0.511556  -3.332326  0.982402
H  1.869991  2.500719  1.300573
H  2.139595  3.448313  -0.189886
H  2.109935  -2.588168  0.726173
H  2.2438  -3.115888  -0.983672
C  -0.502986  3.278338  -1.535853
C  -0.822139  3.284107  1.316984
H  -2.51006  0.133686  -2.281991
H  -4.973477  0.076971  -2.329308
H  -6.27638  -0.089576  -0.203774
H  -5.043435  -0.199082  1.966426
H  -2.578809  -0.143237  2.006377
H  -0.395308  -0.089614  1.574966
H  1.172244  0.677084  3.714971
H  2.037755  -1.189192  2.807589
H  3.184439  -2.173869  3.016929
H  -0.297064  0.148049  -1.760504
H  0.845291  0.365174  2.246275
H  -0.279976  -4.04147  -1.930211
H  -1.648452  -2.871796  -1.925031
H  -0.125222  -2.426037  -2.724838
H  -0.285457  -4.381615  0.738355
H  0.014443  -3.043406  1.903894
H  -1.594382  -3.209672  1.131024
H  -0.550735  4.35004  1.277141
H  -1.915462  3.176211  1.26057
H  -0.486101  2.842351  2.265346
H  -0.273606  4.349215  -1.425069
H  0.051279  2.853286  -2.383919
H  -1.576869  3.145992  -1.736509
