15
charge=1 multiplicity=1
H  2.641705  0.461565  -0.02056
Pt  0.020704  -0.192001  -0.030352
C  2.039701  -0.379274  0.353582
N  0.212715  2.049076  0.066121
H  -0.069155  -1.731005  -0.101538
N  -2.156991  -0.150851  0.237592
H  2.00511  -0.361263  1.456832
H  2.49858  -1.320042  0.027318
H  -2.622267  0.758635  0.250535
H  1.016843  -0.443662  -1.158818
H  -0.272928  2.513048  0.837301
H  1.195081  2.316582  0.163314
H  -0.113379  2.504433  -0.7898
H  -2.583046  -0.681586  -0.526223
H  -2.436327  -0.634855  1.095574
