39
charge=0 multiplicity=1
C  -2.214507  1.309038  -0.825731
C  -2.29225  -0.143945  -0.458938
N  -1.097951  -0.678241  -0.194749
C  -0.941126  -1.955975  0.224297
C  -2.078719  -2.782891  0.280785
C  -3.321539  -2.252605  -0.032926
C  -3.45178  -0.904806  -0.389931
C  0.398447  -2.272728  0.701352
P  1.670975  -1.334574  -0.208664
H  -4.425159  -0.461052  -0.602855
H  -1.97386  -3.822884  0.593347
H  -4.209512  -2.887816  0.018882
C  -0.905646  3.310628  -0.619163
C  -1.627775  2.154971  1.360459
H  0.586474  -3.321695  0.962574
H  -3.198173  1.80346  -0.714913
H  -1.908516  1.381808  -1.881714
C  2.035312  -2.144808  -1.80637
C  3.197466  -1.598286  0.758306
H  2.80209  -1.564828  -2.341575
H  2.380938  -3.180668  -1.668198
H  1.116883  -2.137744  -2.40956
H  4.024087  -1.040755  0.294675
H  3.035187  -1.205523  1.771167
H  3.462277  -2.664941  0.817629
H  -2.589178  2.701814  1.408528
H  -1.714103  1.169381  1.834627
H  -0.8653  2.713793  1.917405
H  -1.814087  3.944029  -0.635643
H  -0.130634  3.817818  -0.030895
H  -0.530264  3.176048  -1.641312
C  2.008379  1.717928  -0.111271
O  2.940753  2.40893  -0.135877
Ru  0.554993  0.611649  -0.122223
H  0.551845  0.831902  -1.704079
O  0.304291  -0.050411  2.012694
H  1.054804  0.188498  2.566181
H  0.405746  -1.322294  1.648428
N  -1.182884  2.002816  -0.02727
