43
charge=0 multiplicity=1
C  -0.512434  3.715853  0.402787
C  0.753104  3.168723  0.228333
C  0.932324  1.850588  -0.21526
C  -0.194236  1.077534  -0.560328
C  -1.477218  1.608198  -0.268638
C  -1.632239  2.91581  0.193803
C  2.322194  1.27531  -0.146358
C  2.737417  0.98778  1.298295
N  1.906386  0.021187  1.985889
Pt  -0.146263  -0.799736  -1.369061
C  1.250776  -0.237978  -2.816739
C  -2.661701  0.674529  -0.338106
P  -1.955155  -0.972334  0.094237
H  1.636504  3.770596  0.464811
H  -2.633646  3.303524  0.40167
H  -0.626378  4.748171  0.742512
H  -3.07113  0.583632  -1.359375
H  -3.479391  0.984323  0.332916
H  2.388053  0.362098  -0.749686
H  3.055563  1.985699  -0.562227
H  3.808231  0.672929  1.309168
C  -3.325605  -2.171251  -0.0636
C  -1.614283  -0.882607  1.88374
H  2.687264  1.929906  1.868131
C  2.058048  -1.31653  1.473567
C  2.085952  0.074771  3.413603
H  1.480211  0.83648  -2.786785
H  2.195858  -0.801323  -2.720854
H  0.835897  -0.463617  -3.814853
H  -0.39371  -2.210012  -2.379417
H  1.399637  -2.005009  2.02525
H  1.757586  -1.361158  0.414083
H  3.100779  -1.70011  1.561836
H  1.382148  -0.6128  3.909039
H  3.113872  -0.205072  3.741817
H  1.880451  1.090969  3.783473
H  -2.493435  -0.544409  2.45314
H  -1.310595  -1.878388  2.239379
H  -0.767687  -0.192014  2.027637
H  -4.178804  -1.891386  0.573502
H  -3.654107  -2.20863  -1.112324
H  -2.976122  -3.17313  0.225797
H  0.120343  -2.488328  -1.752993
