51
charge=0 multiplicity=1
C  -3.043568  0.613088  -1.073211
C  -2.233656  -0.011704  -0.098756
C  -2.93063  -0.718216  0.904792
C  -4.323487  -0.790224  0.944056
C  -5.089821  -0.163567  -0.03816
C  -4.436602  0.536343  -1.052547
Ir  -0.208138  0.105185  -0.207229
P  0.183134  -2.117865  -0.615427
C  1.934524  -2.214254  -0.200303
C  2.647877  -0.961364  -0.359745
N  1.936211  0.205733  -0.344517
C  2.57123  1.400058  -0.357697
C  3.9572  1.492328  -0.377125
C  4.706039  0.312827  -0.422905
C  4.056902  -0.906379  -0.424416
C  1.715784  2.637676  -0.413866
P  0.004432  2.322147  0.229569
H  4.618019  -1.841911  -0.454848
H  4.43854  2.471148  -0.380461
H  5.797549  0.355365  -0.458752
H  2.213902  3.490244  0.073866
H  1.57713  2.913762  -1.474529
H  1.824963  -2.304452  1.207561
H  2.490789  -3.102962  -0.529944
H  -2.565727  1.179162  -1.881325
H  -5.01906  1.032619  -1.834964
H  -6.180963  -0.22092  -0.014172
H  -4.815669  -1.346979  1.747458
H  -2.362945  -1.240652  1.682736
H  0.025809  -0.128675  1.468544
O  0.257204  -0.35369  2.714552
H  -0.604261  -0.617992  3.059818
H  0.917227  -1.284981  2.634571
O  1.629628  -2.307091  2.409599
H  2.487511  -2.210004  2.837023
C  -0.641529  -3.428207  0.351701
H  -1.728812  -3.349686  0.209017
H  -0.296431  -4.426255  0.040991
H  -0.3977  -3.282816  1.412669
C  -0.063061  -2.672429  -2.345802
H  0.315799  -3.695198  -2.495995
H  -1.135939  -2.637818  -2.588567
H  0.470503  -1.984917  -3.017084
C  0.037712  2.853462  1.976501
H  0.43077  3.875133  2.090651
H  -0.990709  2.811075  2.365487
H  0.638605  2.134696  2.55086
C  -1.005483  3.613281  -0.579822
H  -2.047465  3.488948  -0.25014
H  -0.658973  4.629108  -0.335207
H  -0.97793  3.465091  -1.66881
