33
charge=0 multiplicity=1
C  0.186395  2.949468  0.561815
N  0.223605  1.624287  0.414564
N  1.35344  1.175994  0.979391
C  2.041987  2.212562  1.486836
C  1.329548  3.37804  1.244576
B  1.794695  -0.306824  0.918159
N  0.662333  -1.187224  1.496193
N  -0.594272  -1.124447  1.042527
C  -1.313061  -2.017355  1.721882
C  -0.496802  -2.68849  2.641373
C  0.75556  -2.120921  2.460048
Pt  -1.155531  0.342501  -0.449743
N  2.078853  -0.691785  -0.534937
N  1.142788  -0.508251  -1.470144
C  1.657738  -0.936768  -2.615387
C  2.968684  -1.415078  -2.423273
C  3.19464  -1.235393  -1.068981
H  1.073356  -0.88175  -3.533737
H  4.063421  -1.451237  -0.450674
H  3.652147  -1.825411  -3.162416
H  2.791791  -0.452537  1.595061
H  1.707208  -2.315093  2.949063
H  2.99546  2.046721  1.982393
H  -0.779299  -3.468787  3.342703
H  1.598149  4.392728  1.524697
H  -2.378806  -2.128498  1.53055
H  -0.657852  3.51594  0.176594
H  -1.843289  -1.147274  -2.256292
H  -1.553264  1.450628  -1.465225
C  -2.543758  -0.979716  -1.42411
H  -2.69181  -1.916815  -0.872558
H  -2.710319  0.012083  -0.451006
H  -3.496932  -0.655497  -1.865668
