38
charge=0 multiplicity=1
C  2.420367  4.040068  -1.316516
C  1.942539  4.079325  -0.013362
C  0.986464  3.155806  0.451677
C  0.518504  2.152428  -0.427051
C  0.996916  2.155245  -1.743243
C  1.936255  3.079611  -2.201695
Pd  -0.906443  0.824906  0.077968
C  -1.851055  3.271681  1.393748
H  0.625933  1.398135  -2.442173
H  2.285315  3.046159  -3.236375
H  3.162684  4.773049  -1.641606
H  2.307651  4.850494  0.673371
P  0.596665  -0.849124  0.021008
C  0.247556  -2.112965  -1.245816
C  2.352689  -0.430912  -0.253415
C  0.650485  -1.77452  1.592289
N  0.574297  3.280922  1.781883
H  0.882019  4.149059  2.19993
C  -0.713087  2.830445  2.266922
N  -2.121482  2.549854  0.375695
O  -3.065763  3.040695  -0.446688
C  -3.255305  2.244452  -1.60189
H  -3.57081  1.225468  -1.329525
H  -4.04688  2.750341  -2.168214
H  -2.332622  2.208616  -2.203394
H  -0.741036  1.727542  2.337359
H  -0.844828  3.22033  3.285966
H  -2.381104  4.222201  1.534925
I  -2.893113  -0.906698  0.68915
H  2.484459  0.030611  -1.240545
H  2.972567  -1.337373  -0.177787
H  2.669941  0.304882  0.498932
H  0.287911  -1.647335  -2.241103
H  -0.769665  -2.494933  -1.078264
H  0.978791  -2.934312  -1.195297
H  1.375289  -2.600787  1.530084
H  -0.356202  -2.159507  1.806957
H  0.943663  -1.090209  2.401436
