19
charge=0 multiplicity=1
C  -2.134989  -0.336127  -0.867543
C  -2.524855  0.403707  0.312489
C  -2.111427  -0.334502  1.431451
C  -1.464131  -1.534532  0.948744
C  -1.569958  -1.578242  -0.468356
Rh  -0.244523  0.172945  0.198005
P  1.584555  0.030998  1.415738
P  0.656675  1.696919  -1.111959
H  1.975247  2.176968  -0.860407
H  0.839375  1.454845  -2.508355
H  0.048113  2.979275  -1.277322
H  2.706205  0.86506  1.135267
H  1.552476  0.273769  2.823614
H  2.316217  -1.192999  1.508002
H  -2.243611  -0.057039  2.475839
H  -1.068238  -2.330207  1.579856
H  -3.039031  1.363215  0.323083
H  -2.351287  -0.038572  -1.893581
H  -1.237614  -2.38209  -1.121435
