45
charge=0 multiplicity=1
Ta  -0.004711  0.206129  -0.075055
N  -0.048753  -1.577654  -0.973924
N  -2.009798  0.138384  0.346729
N  2.065126  0.287537  -0.109135
N  -0.236644  1.800676  -1.263635
C  -0.297274  -1.756731  2.792246
H  -1.372474  -1.561986  2.830527
H  0.033973  -2.774369  3.012952
C  0.587972  -0.779573  2.516873
H  1.650608  -1.056093  2.509711
C  0.271822  0.598326  2.107564
H  -0.67681  0.961212  2.52795
H  1.069573  1.31898  2.330484
H  -3.17848  -1.178834  1.531905
C  -2.836719  -1.032603  0.486596
H  -2.293035  -1.937333  0.185279
H  -3.753354  -0.951927  -0.132645
H  -3.672428  1.445307  0.3181
C  -2.699483  1.307911  0.830479
H  -2.91827  1.240955  1.917184
H  -2.103063  2.218397  0.667933
H  3.766038  1.39745  0.476437
C  3.145747  0.536014  0.801939
H  3.834947  -0.331564  0.869356
H  2.791695  0.755705  1.816253
H  3.232206  0.864005  -1.785439
C  2.605742  0.022404  -1.426796
H  3.2443  -0.884491  -1.434199
H  1.811095  -0.131777  -2.172284
H  1.343931  -2.508078  0.282749
C  0.635739  -2.7580  -0.518856
H  1.204911  -3.231736  -1.342656
H  -0.066628  -3.517424  -0.118157
H  -1.62221  -2.530263  -2.033143
C  -0.815896  -1.782622  -2.174657
H  -1.295707  -0.847858  -2.503243
H  -0.179148  -2.141737  -3.007506
C  -1.372293  2.013755  -2.130432
H  -1.073653  2.004637  -3.197547
H  -1.847988  2.995263  -1.936686
H  -2.133694  1.237532  -1.97668
H  0.298331  3.843013  -1.153215
C  0.739209  2.859193  -1.40603
H  1.111355  2.929226  -2.447505
H  1.598427  2.689047  -0.745293
