65
charge=1 multiplicity=1
N  0.616035  2.122182  0.374576
N  1.354533  -2.038455  -0.656091
C  -0.07862  0.631398  -1.907931
H  0.918549  1.005357  -2.169149
H  -0.507803  0.07689  -2.751757
C  -1.024252  1.58929  -1.342246
C  -0.725113  2.284414  -0.133094
C  -1.68448  3.088099  0.502658
H  -1.429651  3.628366  1.414962
C  -2.95547  3.221274  -0.036677
H  -3.694203  3.854271  0.458413
C  -3.272318  2.558565  -1.229841
H  -4.264103  2.677849  -1.671875
C  -2.332674  1.758601  -1.856207
H  -2.585609  1.252629  -2.790913
C  0.814292  2.517051  1.768312
H  0.694667  3.605561  1.902408
H  1.835656  2.247356  2.062111
H  0.11294  1.997811  2.43282
C  1.614139  2.82342  -0.453292
H  1.419796  2.663832  -1.517746
H  2.616976  2.450763  -0.211834
H  1.561406  3.906771  -0.254242
C  1.635278  -0.665021  1.796923
H  1.840829  -0.063038  2.68991
H  1.396458  -1.694402  2.094343
C  2.635573  -0.502545  0.746117
C  2.453477  -1.103102  -0.533016
C  3.322427  -0.817144  -1.596798
H  3.179324  -1.295214  -2.565566
C  4.377287  0.065234  -1.426581
H  5.049091  0.277834  -2.260161
C  4.586525  0.658853  -0.175777
H  5.433187  1.332942  -0.02635
C  3.730879  0.385183  0.876866
H  3.913253  0.834526  1.856551
C  1.634436  -3.287303  0.077181
H  0.729098  -3.907098  0.124304
H  1.986639  -3.083878  1.092721
H  2.421349  -3.855702  -0.445799
C  1.015724  -2.404596  -2.034866
H  0.882682  -1.511429  -2.65052
H  0.076103  -2.974379  -2.035215
H  1.795448  -3.046089  -2.479521
Sc  0.140695  -0.153879  0.203805
C  -1.745779  -2.309413  1.58895
C  -1.946158  -3.128248  0.326522
N  -1.783667  -0.853059  1.329382
C  -3.230806  -2.753767  -0.395553
C  -3.243153  -1.253897  -0.644355
C  -3.048196  -0.491087  0.651029
C  -1.709864  -0.135312  2.607957
H  -0.78503  -2.547401  2.071374
H  -2.540658  -2.552271  2.32102
H  -1.0943  -2.959094  -0.352193
H  -1.9261  -4.1961  0.592332
H  -3.320632  -3.311454  -1.339754
H  -4.101876  -3.036009  0.220461
H  -2.442514  -0.98384  -1.356892
H  -4.185673  -0.926036  -1.107397
H  -3.045855  0.594316  0.481269
H  -3.886219  -0.711219  1.341523
H  -1.803652  0.94515  2.429028
H  -0.755013  -0.346749  3.108443
H  -2.535506  -0.440153  3.275354
