38
charge=-1 multiplicity=1
C  3.453905  -2.100012  -0.863292
C  2.105705  -1.748173  -0.962793
C  1.526831  -0.817501  -0.089882
C  2.319014  -0.248361  0.931396
C  3.665722  -0.623353  1.023403
C  4.238285  -1.538308  0.140559
Pd  -0.378649  -0.340024  -0.498684
C  1.758565  0.801064  1.848018
C  1.765898  2.222501  1.222944
C  1.471536  2.160731  -0.243352
C  0.139315  1.992543  -0.68608
C  -0.119212  1.69285  -2.035569
C  0.942283  1.570225  -2.948887
C  2.243829  1.777908  -2.518406
C  2.502437  2.07127  -1.174384
P  -0.876809  -2.018306  0.886235
H  -2.184138  -2.045055  1.404027
H  1.491559  -2.20781  -1.743854
H  -0.03202  -2.371456  1.95475
H  -0.855223  -3.26294  0.178008
H  3.536114  2.179241  -0.834248
H  4.278929  -0.177068  1.813835
H  5.292246  -1.813292  0.240522
H  3.883554  -2.820859  -1.565485
H  -0.676238  2.137491  0.038175
H  2.340329  0.830391  2.783944
H  0.722265  0.535496  2.122382
H  2.751918  2.693536  1.373411
H  1.001291  2.816429  1.74546
Br  -2.805266  -0.250214  -1.272578
O  -1.583464  1.823963  1.948791
C  -1.834845  0.659733  2.292232
O  -1.057113  -0.233867  2.703013
O  -3.14836  0.242791  2.193408
H  -3.579882  0.928057  1.668177
H  -1.153974  1.601702  -2.372717
H  3.07646  1.686442  -3.221251
H  0.733004  1.325501  -3.993091
