37
charge=0 multiplicity=1
Fe  0.225651  0.36233  -0.07497
P  -0.860307  2.237208  -0.477161
P  1.689051  -0.037342  -1.760762
N  -1.051921  0.1542  1.386928
N  0.864803  -1.329974  0.613094
H  -1.103182  -0.85445  3.254425
H  1.158493  -2.041626  2.593127
H  0.344623  0.142982  3.01541
C  -0.386129  -0.510742  2.480491
H  -0.349478  -2.568696  1.821239
C  0.354551  -1.716681  1.905992
H  -2.081203  1.294214  2.849852
H  2.141891  -2.962428  0.402643
C  -1.964197  1.211017  1.752479
C  1.792224  -2.015323  -0.041265
H  -0.68093  2.972115  1.782915
C  -1.53228  2.577291  1.203261
H  -2.336664  3.329803  1.213583
H  1.167125  -0.139184  -3.085775
H  2.773135  0.835837  -2.077317
H  -2.016444  2.236144  -1.308907
H  -0.324572  3.488146  -0.888804
C  1.426733  1.226494  0.795896
O  2.238973  1.798967  1.377091
O  -1.127341  -0.559991  -1.465747
C  -1.988741  -1.426112  -1.431806
C  -2.787197  -1.714965  -2.668198
C  -2.274652  -2.206013  -0.197356
H  -2.988108  1.007719  1.362149
H  -2.423681  -1.117387  -3.512953
H  -2.730017  -2.788574  -2.907965
H  -3.849847  -1.491244  -2.479487
H  -2.134755  -1.506238  0.651495
H  -3.257597  -2.694219  -0.221356
H  -1.493684  -2.977453  -0.099906
C  2.339196  -1.596715  -1.242438
H  3.106073  -2.169775  -1.762595
