57
charge=0 multiplicity=1
Mo  0.184783  0.122579  -0.069106
Si  0.41663  -0.4127  2.331818
P  -0.372417  2.469522  0.507089
P  0.81994  -2.208345  -0.643021
N  -1.524953  -0.296536  -0.058364
H  2.734546  2.484447  -1.269774
C  -0.529251  3.674327  -0.875267
H  -0.797191  4.683248  -0.523257
H  -1.301235  3.316693  -1.572553
H  0.425266  3.722892  -1.420413
C  0.801722  3.328522  1.622078
H  0.50566  4.373252  1.804113
H  1.806208  3.305752  1.175235
H  0.839128  2.78744  2.578609
C  -1.972375  2.642932  1.370457
H  -2.187168  3.691785  1.625512
H  -1.941162  2.033737  2.285217
H  -2.770886  2.245486  0.72763
C  1.063633  -2.613932  -2.420783
H  1.330958  -3.671228  -2.576134
H  1.860401  -1.97387  -2.827634
H  0.135234  -2.390557  -2.966895
C  2.374452  -2.828388  0.103164
H  2.615178  -3.848429  -0.234048
H  2.26927  -2.820092  1.197765
H  3.194514  -2.147501  -0.1679
C  -0.42493  -3.437604  -0.117748
H  -0.125077  -4.463194  -0.381579
H  -1.38537  -3.195571  -0.595085
H  -0.558074  -3.354162  0.970381
C  2.191091  -0.108649  2.967153
H  2.465419  0.952595  2.865786
H  2.922982  -0.689478  2.385253
H  2.290499  -0.38893  4.027742
H  -0.474956  0.373015  3.277583
H  0.100858  -1.844789  2.725972
C  -2.86181  -0.559954  -0.047389
C  -5.007431  -0.699368  -1.179833
C  -3.644142  -0.425907  -1.212148
C  -3.489811  -0.974942  1.145399
C  -4.852883  -1.244001  1.164457
C  -5.620286  -1.109057  0.005277
H  -5.600478  -0.591353  -2.091752
H  -3.154612  -0.104425  -2.134102
H  -2.877454  -1.075856  2.044152
H  -5.324828  -1.564186  2.09696
H  -6.691297  -1.322473  0.025782
C  3.012443  1.415185  -1.132707
O  1.923605  0.727695  -0.631421
C  3.404242  0.860677  -2.495961
H  3.725444  -0.189088  -2.398501
H  4.231534  1.433879  -2.941879
H  2.545309  0.894213  -3.182806
C  4.164043  1.354777  -0.139326
H  3.852328  1.754246  0.836459
H  5.031942  1.930973  -0.495059
H  4.47692  0.309712  0.013304
