15
charge=1 multiplicity=1
H  2.843043  0.424707  -0.001907
Pt  -0.116237  -0.170822  0.051739
C  2.184565  -0.437092  0.158141
N  0.122923  2.066599  0.070527
H  -0.264492  -1.708476  0.026086
N  -2.159478  -0.137583  0.227335
H  1.828059  -0.455177  1.202709
H  2.704229  -1.384001  -0.030532
H  -2.588702  0.790219  0.240458
H  1.454735  -0.42214  -0.75058
H  -0.335409  2.536729  0.854347
H  1.104553  2.346305  0.130735
H  -0.232667  2.510708  -0.779414
H  -2.586265  -0.649529  -0.54991
H  -2.455433  -0.61485  1.084001
