38
charge=-1 multiplicity=1
C  3.612504  -2.654105  -0.482648
C  2.301634  -2.262236  -0.769459
C  1.667618  -1.255862  -0.031013
C  2.383654  -0.62712  1.005441
C  3.69437  -1.024474  1.286008
C  4.313071  -2.036834  0.551096
Pd  -0.22611  -0.712579  -0.340177
C  1.726924  0.502509  1.748201
C  1.811437  1.83669  1.007076
C  1.430985  1.887249  -0.460336
C  0.619082  0.948424  -1.126958
C  0.324132  1.171825  -2.484231
C  0.80337  2.280482  -3.178007
C  1.603581  3.208596  -2.513808
C  1.904683  3.002126  -1.172912
P  -1.08297  -2.643188  0.64694
H  -1.711601  -2.491729  1.913747
H  1.765755  -2.75331  -1.587622
H  -0.240247  -3.734701  1.003136
H  -2.119664  -3.410968  0.04414
H  2.531214  3.73042  -0.645832
H  4.239173  -0.528758  2.096948
H  5.338013  -2.33918  0.78447
H  4.085723  -3.446057  -1.071788
H  -1.76809  1.902735  0.420521
H  2.185965  0.635366  2.741375
H  0.671774  0.238639  1.923737
H  2.847105  2.209684  1.090192
H  1.181751  2.564452  1.548659
Br  -2.691722  0.087702  -0.7110
O  -1.475462  2.495684  1.146828
C  -1.521334  1.905042  2.340447
O  -1.101529  2.437367  3.330139
O  -2.070319  0.686056  2.372286
H  -2.365084  0.402732  1.47532
H  -0.316965  0.460053  -3.012243
H  1.991504  4.088025  -3.03621
H  0.548401  2.419629  -4.233236
