38
charge=0 multiplicity=1
C  2.806303  3.461639  -1.067905
C  2.429128  3.51947  0.269723
C  1.16214  3.049718  0.649898
C  0.319836  2.424252  -0.297936
C  0.690021  2.461737  -1.650907
C  1.931783  2.962625  -2.040237
Pd  -0.971996  0.798061  0.114266
C  -1.379985  3.177058  0.529174
H  0.007564  2.058987  -2.40502
H  2.220679  2.961755  -3.09341
H  3.787139  3.843253  -1.362555
H  3.092199  3.969995  1.013571
P  0.719393  -0.728614  0.021495
C  0.639728  -1.771782  -1.47264
C  2.424164  -0.07465  0.000468
C  0.769319  -1.91681  1.4055
N  0.612239  3.252742  1.89093
H  1.071706  3.898735  2.51562
C  -0.830382  3.14829  1.944979
N  -2.407113  2.369254  0.26852
O  -2.971401  2.716771  -0.932901
C  -4.201016  2.051915  -1.114961
H  -4.922242  2.336578  -0.331351
H  -4.570829  2.374857  -2.096843
H  -4.063562  0.958749  -1.098703
H  -1.171799  2.210731  2.418895
H  -1.248957  3.987762  2.525715
H  -1.343768  4.126042  -0.024127
I  -2.722098  -1.194067  0.412756
H  2.55203  0.616857  -0.843806
H  3.149406  -0.898703  -0.080496
H  2.609328  0.485048  0.927709
H  0.713132  -1.128806  -2.361723
H  -0.336334  -2.277731  -1.485219
H  1.453716  -2.512797  -1.486393
H  1.600131  -2.627577  1.277022
H  -0.190751  -2.449432  1.448026
H  0.90029  -1.364023  2.346908
