15
charge=1 multiplicity=1
H  2.543577  0.600448  -0.600505
Pt  0.097704  -0.091308  -0.005806
C  2.125461  -0.152071  0.090055
N  0.24373  1.907004  0.61812
H  0.090705  -1.720901  -0.012696
N  -2.153242  -0.033583  -0.114196
H  2.446267  0.074485  1.121443
H  2.541315  -1.130397  -0.185143
H  -2.484911  -0.269685  -1.052415
H  0.14317  -1.442281  -0.91596
H  -0.235364  2.08672  1.50475
H  1.223998  2.167971  0.760464
H  -0.135233  2.568028  -0.065603
H  -2.572039  -0.723518  0.51395
H  -2.600369  0.855062  0.117952
