37
charge=0 multiplicity=1
Fe  0.558339  0.413888  0.000371
P  -0.654365  2.122563  -0.706858
P  1.905518  -0.186915  -1.682438
N  -0.709788  0.378559  1.449136
N  1.125002  -1.266041  0.791191
H  -1.146607  -0.784114  3.167349
H  1.28123  -1.927787  2.805168
H  0.351699  0.165179  3.217564
C  -0.290366  -0.446291  2.555354
H  -0.137838  -2.523417  1.934964
C  0.52682  -1.641533  2.046819
H  -2.717282  0.551463  2.011526
H  2.285253  -2.991861  0.636011
C  -1.996466  0.662019  1.180782
C  1.995624  -2.041971  0.156951
H  -2.181218  2.795811  1.070101
C  -2.165952  1.94401  0.372791
H  -3.100125  1.971009  -0.206085
H  1.261005  -0.388291  -2.93895
H  2.982551  0.616617  -2.160308
H  -1.165663  2.173432  -2.02672
H  -0.363051  3.509759  -0.557226
C  1.802948  1.320704  0.778771
O  2.627642  1.921385  1.307695
O  -0.988176  -0.412932  -1.176879
C  -2.113922  -0.920695  -0.844482
C  -3.295756  -0.576945  -1.730676
C  -2.120274  -2.309869  -0.251149
H  -2.477664  -0.211124  0.353589
H  -3.270189  0.482584  -2.019667
H  -3.2188  -1.170854  -2.65793
H  -4.26064  -0.81011  -1.25768
H  -1.38438  -2.372048  0.558253
H  -3.112637  -2.609817  0.11472
H  -1.799758  -3.019418  -1.032471
C  2.550433  -1.710794  -1.064949
H  3.270926  -2.350114  -1.573548
