38
charge=0 multiplicity=1
C  -2.28662  0.969745  0.024467
C  -1.30245  2.005057  0.065865
C  -0.371073  1.668919  1.074506
C  -0.798181  0.458744  1.70991
C  -1.979393  0.030915  1.046437
W  -0.248387  -0.025538  -0.557569
C  1.882385  -2.05068  -0.124259
C  0.620753  -2.027661  -0.985812
H  0.792922  -2.195516  -2.054253
C  -0.72113  -2.164815  -0.509576
H  -0.887981  -2.519136  0.514513
H  -1.486335  -2.510803  -1.211612
C  3.054106  -2.675765  -0.884119
H  3.219638  -2.168309  -1.846323
H  3.986275  -2.610688  -0.300802
H  2.844291  -3.73633  -1.094621
N  -0.567915  0.303332  -2.286582
O  -0.941352  0.713219  -3.335847
C  1.675079  -2.805611  1.184171
H  1.37266  -3.83978  0.966115
H  2.598708  -2.842427  1.781735
H  0.888739  -2.34849  1.804252
C  2.155112  -0.555658  0.110142
C  2.164419  0.3434  -0.994784
C  2.556175  -0.030648  1.369342
C  2.588044  1.684789  -0.829216
H  2.066087  -0.046663  -2.009187
C  2.982389  1.274619  1.50741
H  2.56258  -0.687101  2.240295
C  3.000704  2.149149  0.401174
H  2.607168  2.338263  -1.704522
H  3.314731  1.63076  2.485853
H  3.342981  3.17944  0.519347
H  -2.565064  -0.854984  1.283353
H  0.513495  2.246268  1.336266
H  -0.314502  -0.027197  2.554985
H  -3.136246  0.920399  -0.654898
H  -1.257338  2.872841  -0.590336
