19
charge=0 multiplicity=1
C  -1.310452  -0.401846  -1.07603
C  -2.6427  0.007912  -0.903456
C  -3.156746  -0.143029  0.373088
C  -2.27425  -0.813324  1.25243
C  -1.018625  -1.106747  0.771425
Rh  0.448606  -0.182394  -0.301877
P  2.695982  -0.505122  0.240064
P  0.131055  1.871649  0.335089
H  0.806316  2.398807  1.472886
H  0.351063  2.986344  -0.525807
H  -1.210144  2.155157  0.713478
H  3.710832  -0.320973  -0.745942
H  3.308741  0.3259  1.22226
H  3.233015  -1.726907  0.749477
H  -4.161554  0.175574  0.660358
H  -2.578409  -1.111001  2.260379
H  -3.239725  0.364032  -1.747149
H  -0.95859  -0.647779  -2.103498
H  -0.35808  -1.719466  1.403129
