38
charge=0 multiplicity=1
P  -2.19432  -0.193671  -0.099758
N  -0.004997  -1.571707  -1.29137
C  1.215153  -2.261506  -1.603912
C  -1.22557  -2.280454  -1.556173
C  -2.392414  -1.298084  -1.56308
H  -3.375401  -1.796218  -1.584112
H  -2.310971  -0.644869  -2.447358
C  2.365294  -1.260983  -1.655876
H  2.238645  -0.608774  -2.53556
P  2.207475  -0.160746  -0.184604
C  0.027446  1.149322  1.429914
O  0.040986  1.837845  2.360227
Mn  0.0083  0.056136  0.043602
C  -0.026627  1.33666  -1.174276
O  -0.050732  2.151036  -1.996435
C  -3.276745  1.238662  -0.439932
H  -4.312601  0.929963  -0.647001
C  3.255446  1.287309  -0.563973
H  2.8162  1.836199  -1.409249
H  1.47238  -3.071542  -0.872397
H  1.132725  -2.774366  -2.582935
H  3.354404  -1.74358  -1.716153
H  -1.441488  -3.094113  -0.815374
H  -1.173391  -2.792396  -2.537748
C  3.167719  -1.015766  1.120255
H  4.220973  -1.15396  0.830988
C  -3.090931  -1.060062  1.242255
H  -2.612267  -2.033524  1.420429
H  0.023918  -1.588989  0.221644
H  0.038308  -1.285774  1.119634
H  -4.152433  -1.214156  0.994155
H  -3.013796  -0.471476  2.168407
H  -2.877968  1.792552  -1.30183
H  -3.266569  1.910289  0.4313
H  2.71059  -1.996463  1.314551
H  3.117954  -0.429877  2.049977
H  3.269124  1.958032  0.307904
H  4.286941  0.993673  -0.810956
