35
charge=0 multiplicity=1
C  0.550264  -0.429963  -0.794574
C  1.887416  -0.813068  -0.931108
N  1.982238  -1.78158  -1.888951
N  0.815606  -2.028198  -2.363322
N  -0.049614  -1.230159  -1.719182
C  -1.437921  -1.254443  -2.114643
H  -1.660444  -0.385707  -2.755222
H  -1.555634  -2.157464  -2.732613
Ag  -0.56393  0.715943  0.532119
P  -2.005569  1.835522  2.058695
C  3.082355  -0.345104  -0.222121
C  4.315148  -0.978383  -0.445731
C  3.043776  0.729937  0.677562
C  5.463808  -0.553979  0.214539
H  4.344541  -1.80978  -1.15228
C  4.192675  1.152281  1.339752
H  2.096154  1.247315  0.85121
C  5.410745  0.511891  1.113061
H  6.41322  -1.061773  0.025601
H  4.13822  1.993796  2.035471
H  6.313802  0.844147  1.630854
C  -2.383627  -1.277078  -0.942583
C  -3.440388  -0.365411  -0.858987
C  -2.215651  -2.211319  0.088041
C  -4.313343  -0.381596  0.231016
H  -3.577602  0.369487  -1.657214
C  -3.080108  -2.225444  1.178424
H  -1.383488  -2.918041  0.035386
C  -4.132889  -1.310176  1.254262
H  -5.14013  0.332124  0.27556
H  -2.934886  -2.959169  1.974889
H  -4.816347  -1.329444  2.106887
H  -1.506783  2.735562  3.034375
H  -3.042374  2.649494  1.539967
H  -2.789442  1.014427  2.904726
