50
charge=0 multiplicity=1
C  -3.916017  0.854938  -0.383223
C  -2.629675  0.463014  -0.672846
C  -1.546986  1.341971  -0.318841
C  -1.855742  2.630043  0.236971
C  -3.206343  2.972707  0.532648
C  -4.212768  2.095181  0.240716
C  -0.793604  3.500925  0.479043
C  0.509249  3.160365  0.115758
C  0.726312  1.851147  -0.434001
C  2.040865  1.508192  -0.90757
C  3.058996  2.417341  -0.736533
C  2.857574  3.680621  -0.120997
C  1.606541  4.052582  0.285002
H  -4.740734  0.192993  -0.661095
H  -3.41583  3.945998  0.98273
H  -5.251698  2.349922  0.460118
H  -0.988369  4.474495  0.938476
H  4.056356  2.162721  -1.105328
H  3.704686  4.358835  0.000822
H  1.423751  5.032802  0.731667
N  -0.275772  0.958253  -0.542622
Ru  0.207746  -0.909589  0.807629
C  -2.349098  -0.82522  -1.372605
H  -1.646481  -0.653636  -2.204391
H  -3.276299  -1.2554  -1.782359
C  2.271189  0.205898  -1.599618
H  1.486796  0.039525  -2.355921
H  3.249667  0.201949  -2.104809
P  -1.492472  -2.046074  -0.265523
P  2.12845  -1.234011  -0.434531
C  3.715754  -1.157482  0.478135
H  3.746692  -1.986782  1.200363
H  4.591573  -1.216917  -0.187075
H  3.734613  -0.218585  1.049265
C  2.450429  -2.633889  -1.586411
H  3.418614  -2.539037  -2.103401
H  2.438667  -3.572974  -1.01358
H  1.64495  -2.682888  -2.332911
C  -2.863292  -2.648995  0.790586
H  -3.687024  -3.089814  0.207383
H  -2.464984  -3.400137  1.488798
H  -3.23018  -1.802141  1.387453
C  -1.286607  -3.463586  -1.422577
H  -0.815552  -4.296948  -0.8806
H  -2.244957  -3.804416  -1.845745
H  -0.614226  -3.169105  -2.240944
C  0.53757  -2.133601  2.087309
O  0.74599  -2.917084  2.91738
H  -0.969377  -0.323493  1.775967
H  1.10147  0.141479  1.681647
