27
charge=0 multiplicity=1
C  -0.394914  0.210491  0.21455
N  0.431791  0.058284  -0.81663
C  -0.188849  0.508913  -2.058287
C  -1.664563  0.567974  -1.67627
N  -1.591524  0.615362  -0.22409
C  1.858527  -0.128809  -0.721853
C  -2.778406  0.680535  0.588239
Ru  -0.110994  -0.018761  2.225304
C  -1.163604  -0.213425  3.985916
C  -0.544979  0.888102  4.023838
Cl  1.106474  2.035276  1.8927
C  1.455727  -0.888202  2.269496
Cl  -1.219965  -2.108915  1.763109
H  0.207584  1.502911  -2.334493
H  0.015903  -0.18853  -2.883266
H  -2.213338  -0.336884  -1.996658
H  -2.182585  1.450072  -2.080526
H  2.316067  0.700821  -0.160175
H  2.086316  -1.076376  -0.214388
H  2.274693  -0.169931  -1.736843
H  -3.492266  1.379011  0.129127
H  -3.239527  -0.313015  0.711062
H  -2.528279  1.070769  1.586258
H  2.400564  -0.329547  2.358207
H  1.474918  -1.988653  2.31621
H  -1.787639  -1.030806  4.326017
H  -0.18951  1.829242  4.425383
