43
charge=0 multiplicity=1
C  1.223364  0.533222  2.370794
C  1.138343  1.276478  3.544987
C  -0.07723  1.867366  3.891518
C  -1.161745  1.750165  3.032947
C  -1.016571  1.016132  1.852212
N  0.144077  0.376354  1.573783
H  -0.166408  2.438633  4.818436
H  2.01924  1.387127  4.178901
H  -2.113218  2.238087  3.249984
C  -2.01722  1.007707  0.751591
H  -2.982558  1.430217  1.070467
C  2.498237  -0.090482  1.891238
H  2.518028  -1.15946  2.167973
H  3.375835  0.394796  2.346049
P  -2.087704  -0.698434  -0.004834
P  2.507335  -0.091818  0.023235
C  0.383784  -1.430453  -2.115698
O  0.465325  -1.837682  -3.19795
C  -1.304068  1.806342  -0.413398
C  -3.301011  -0.535672  -1.356568
C  -2.916548  -1.763315  1.225343
C  3.058988  1.591931  -0.421278
C  3.932343  -1.157326  -0.379963
C  0.615688  -2.435696  0.424658
O  0.79895  -3.458867  0.952063
Re  0.261543  -0.712885  -0.342245
N  -0.329862  1.275482  -1.006582
C  -1.850808  3.186071  -0.662597
H  3.159133  1.645254  -1.515096
H  4.012089  1.867445  0.054956
H  2.264079  2.295445  -0.13471
H  4.051512  -1.178663  -1.472921
H  3.712231  -2.179862  -0.041652
H  4.865198  -0.799561  0.082015
H  -2.914252  3.147325  -0.955303
H  -1.273979  3.663753  -1.465191
H  -1.789673  3.808492  0.246756
H  -2.898376  0.176574  -2.089836
H  -4.282427  -0.194607  -0.993355
H  -3.411686  -1.513496  -1.84737
H  -2.974409  -2.788476  0.831013
H  -3.929334  -1.40632  1.465962
H  -2.304372  -1.785877  2.138282
