32
charge=0 multiplicity=1
N  0.390655  -0.122371  1.443578
C  -1.136657  -0.600185  3.791755
O  -1.177894  -1.712844  3.552506
Na  -0.102035  -2.344767  1.41149
Nb  0.29466  0.102742  -0.250876
N  -0.892753  -1.5916  -0.75595
N  2.162805  -0.142842  -0.99247
N  -0.65249  1.853937  -0.576142
C  -2.267382  -1.631969  -0.308258
C  3.386294  -0.394438  -0.275881
C  -1.127829  2.797884  0.403336
C  2.40213  0.087665  -2.394698
H  1.464444  0.302354  -2.936678
H  3.081937  0.946619  -2.572143
H  2.862721  -0.792456  -2.890641
C  -0.827717  2.335328  -1.922523
H  -0.458389  1.605097  -2.664489
H  -1.89477  2.521554  -2.163412
H  -0.286752  3.287066  -2.106175
C  -0.773699  -2.106876  -2.100414
H  -1.372893  -1.537322  -2.844924
H  0.276439  -2.088067  -2.43383
H  -1.11619  -3.161135  -2.174078
H  -2.683207  -2.664976  -0.307415
H  -2.953442  -1.028543  -0.940042
H  -2.366405  -1.220759  0.712584
H  3.90379  -1.304544  -0.647266
H  3.180342  -0.522339  0.79546
H  4.107597  0.442164  -0.384698
H  -0.609391  3.7757  0.318164
H  -0.960213  2.409661  1.416828
H  -2.21196  3.003294  0.283433
