31
charge=0 multiplicity=1
Cu  0.425309  -1.023863  -0.200315
C  -1.524806  -1.416206  -0.426647
B  -0.959522  0.494875  -0.214814
O  -1.33744  1.262102  -1.292852
O  -1.247582  1.127043  0.982983
C  -1.868374  2.486229  -0.803478
C  -2.098638  2.228173  0.688164
H  -3.140903  1.929642  0.894618
H  -1.840692  3.086579  1.326264
H  -2.794743  2.732265  -1.343395
H  -1.139647  3.297601  -0.980161
C  -2.563406  -1.245001  0.633052
O  -3.665841  -0.792518  0.449907
C  -0.690883  -2.649495  -0.305752
H  -0.660393  -3.284626  -1.195696
H  -0.823187  -3.216599  0.624234
H  -1.945188  -1.213596  -1.421289
H  -2.242998  -1.60889  1.643146
P  2.259132  0.096183  0.078343
C  2.217269  1.024932  1.652131
H  2.234579  0.31269  2.489933
H  3.075377  1.708601  1.740308
H  1.272265  1.584314  1.705444
C  2.509443  1.385961  -1.194856
H  2.644543  0.905491  -2.174865
H  1.60947  2.014328  -1.251167
H  3.390016  2.007787  -0.971954
C  3.886346  -0.743818  0.129728
H  4.709159  -0.032335  0.303464
H  3.874815  -1.495985  0.931439
H  4.050923  -1.268933  -0.822183
