35
charge=0 multiplicity=1
C  1.465192  0.92937  0.036542
C  2.433193  0.111516  -0.016735
N  1.743056  -1.586414  -0.474918
N  0.594856  -1.737203  -0.680582
N  -0.492856  -1.100908  -0.701878
C  -1.685711  -1.843935  -1.066601
H  -1.948172  -1.656737  -2.123415
H  -1.498383  -2.927819  -0.973965
Ag  -0.537096  1.17458  -0.211417
P  -2.749445  2.052493  -0.339228
C  3.864021  -0.069812  0.149124
C  4.591582  0.946532  0.795704
C  4.556115  -1.196764  -0.316688
C  5.966181  0.836516  0.967626
H  4.05502  1.823805  1.162454
C  5.93401  -1.300133  -0.142409
H  4.00221  -1.989833  -0.817142
C  6.645891  -0.288766  0.499187
H  6.512481  1.636418  1.47364
H  6.457201  -2.184402  -0.515038
H  7.726739  -0.375515  0.6342
C  -2.85501  -1.461425  -0.194903
C  -4.122497  -1.252863  -0.746608
C  -2.693281  -1.326718  1.190028
C  -5.210432  -0.927696  0.064577
H  -4.258836  -1.347294  -1.827962
C  -3.77526  -0.996524  2.001436
H  -1.701832  -1.471691  1.626087
C  -5.039219  -0.796836  1.441538
H  -6.194617  -0.770096  -0.383265
H  -3.632613  -0.895418  3.080065
H  -5.888409  -0.540045  2.079241
H  -3.019515  3.434299  -0.161032
H  -3.480033  1.870467  -1.539886
H  -3.711136  1.533501  0.563505
