39
charge=0 multiplicity=1
Os  0.022538  -0.050175  -0.06285
H  0.350685  0.731362  1.600463
H  0.17219  2.642639  0.101924
P  -2.297322  0.175701  -0.271784
P  2.335371  -0.199154  -0.287313
C  3.144453  -1.692495  0.401523
H  4.228772  -1.703722  0.210881
H  2.959928  -1.730517  1.484911
H  2.681893  -2.582626  -0.048611
C  2.938852  -0.19179  -2.015996
H  2.568114  0.716557  -2.511505
H  4.037839  -0.231044  -2.071424
H  2.508483  -1.058023  -2.537762
C  3.352292  1.141303  0.460494
H  3.112499  1.219386  1.531769
H  4.431662  0.956583  0.344216
H  3.104372  2.091956  -0.035686
C  -2.966887  1.85047  -0.606833
H  -4.0611  1.835301  -0.728493
H  -2.707328  2.509738  0.23358
H  -2.497631  2.238868  -1.521951
C  -3.014983  -0.794189  -1.650485
H  -2.757556  -1.852841  -1.503877
H  -4.108908  -0.68185  -1.708307
H  -2.554593  -0.46315  -2.591929
C  -3.315803  -0.375372  1.148741
H  -3.028261  0.204365  2.037013
H  -4.393055  -0.253401  0.956586
H  -3.09577  -1.434737  1.346206
C  -0.168991  -1.748366  0.733394
O  -0.291781  -2.816639  1.168935
H  1.312018  3.172316  1.185182
H  -0.181965  3.880533  1.230821
H  -1.415447  1.853409  2.055841
H  0.303448  1.928862  3.119682
B  -0.201537  1.80969  2.012664
N  0.312754  3.003079  1.07236
H  0.191813  1.433747  -0.981848
H  -0.026977  -0.744865  -1.530648
