23
charge=0 multiplicity=1
C  0.866442  -1.731255  -0.423752
C  0.847114  -1.467479  0.963885
C  1.789172  -0.443367  1.237517
C  2.382785  -0.067522  0.011802
C  1.806978  -0.854966  -1.017864
Ti  0.0620  0.49815  -0.220719
C  -1.655995  0.498159  1.4155
C  -2.255016  -0.177441  0.424096
C  -3.068487  -0.986405  -0.214095
N  -0.987467  0.522645  -1.548949
N  0.538143  2.314661  0.065881
H  2.004239  -0.012515  2.214907
H  0.218772  -1.975311  1.695659
H  3.131327  0.710634  -0.128489
H  2.039354  -0.791011  -2.079664
H  0.242487  -2.451732  -0.949593
H  -1.192177  -0.037759  2.247817
H  -1.627964  0.372033  -2.326768
H  1.318264  2.668933  0.61224
H  0.114553  3.079033  -0.45213
H  -1.752756  1.584542  1.49236
H  -4.00085  -1.284307  0.278008
H  -2.852438  -1.374866  -1.20914
