37
charge=0 multiplicity=1
Fe  0.460051  0.464195  0.049939
P  -0.588945  2.214262  -0.775895
P  1.692954  -0.393262  -1.594628
N  -0.717526  0.699637  1.586276
N  0.830007  -1.236333  0.938143
H  -1.174486  -0.249598  3.43212
H  0.692206  -2.036317  2.901263
H  0.501186  0.336616  3.205663
C  -0.351426  -0.151108  2.703924
H  -0.807854  -2.115235  1.951856
C  0.094904  -1.498555  2.140044
H  -2.456426  1.436377  2.417626
H  1.838249  -3.064567  0.915102
C  -1.758575  1.430681  1.564128
C  1.637797  -2.125984  0.372727
H  -2.285991  3.320432  0.703352
C  -2.049969  2.293084  0.380766
H  -2.937577  1.906213  -0.14289
H  1.006825  -0.628934  -2.820248
H  2.845359  0.251199  -2.135018
H  -1.166337  2.184098  -2.062561
H  -0.185613  3.588179  -0.753073
C  1.854932  1.249412  0.757785
O  2.776221  1.774213  1.200262
O  -1.119626  -0.131423  -0.975893
C  -1.932587  -1.212797  -0.694419
C  -3.371418  -0.884484  -1.090999
C  -1.453588  -2.466835  -1.421306
H  -1.948333  -1.447147  0.395359
H  -3.771278  -0.050353  -0.492487
H  -3.400387  -0.585267  -2.151274
H  -4.04388  -1.746309  -0.953345
H  -0.404115  -2.67793  -1.172455
H  -2.061605  -3.350774  -1.166561
H  -1.514278  -2.307156  -2.510609
C  2.219753  -1.918409  -0.861952
H  2.898937  -2.637648  -1.318197
