38
charge=0 multiplicity=1
C  -2.456322  0.618421  0.153554
C  -1.530369  1.70428  0.126434
C  -0.578962  1.491106  1.145992
C  -0.950001  0.30298  1.863372
C  -2.102491  -0.22529  1.248897
W  -0.385564  -0.283648  -0.428603
C  1.571405  -1.904965  -0.227715
C  0.418967  -2.215489  -1.083061
H  0.614951  -2.284629  -2.15614
C  -0.925396  -2.385724  -0.611178
H  -1.092852  -2.82762  0.379593
H  -1.667878  -2.696837  -1.351386
C  2.880925  -2.307422  -0.899933
H  2.938171  -1.932687  -1.929751
H  3.750657  -1.931121  -0.341893
H  2.923486  -3.408484  -0.9385
N  -0.431405  0.28214  -2.115371
O  -0.619201  0.846644  -3.144093
C  1.499591  -2.509626  1.168376
H  1.411508  -3.601507  1.062484
H  2.40992  -2.29351  1.743521
H  0.635471  -2.161428  1.751751
C  1.880711  -0.105465  -0.025285
C  2.476005  0.559136  -1.126905
C  2.332112  0.275003  1.258248
C  3.388688  1.590542  -0.950966
H  2.19481  0.268831  -2.141691
C  3.266438  1.290597  1.435685
H  1.917229  -0.208737  2.143734
C  3.791493  1.964472  0.333471
H  3.795106  2.104698  -1.825332
H  3.581941  1.562921  2.44621
H  4.521199  2.765546  0.472135
H  -2.632993  -1.128136  1.54659
H  0.278563  2.125957  1.361205
H  -0.445797  -0.101699  2.739087
H  -3.310773  0.486729  -0.507913
H  -1.527934  2.520289  -0.595216
