43
charge=0 multiplicity=1
C  -0.511361  4.076365  -0.053842
C  0.729999  3.456279  -0.176867
C  0.840281  2.066517  -0.295654
C  -0.313558  1.24844  -0.31668
C  -1.558713  1.903909  -0.14797
C  -1.659585  3.293455  -0.020331
C  2.211842  1.441717  -0.337542
C  2.474461  0.563305  0.887001
N  3.442709  -0.487923  0.660246
Pt  -0.374929  -0.893606  -0.43699
C  1.504648  -1.490156  -2.008099
C  -2.796409  1.043293  -0.039947
P  -2.202499  -0.538864  0.668809
H  1.640332  4.063972  -0.167994
H  -2.639474  3.762634  0.110694
H  -0.579316  5.163043  0.039445
H  -3.223786  0.805156  -1.029902
H  -3.593294  1.499045  0.570643
H  2.302684  0.813614  -1.235745
H  2.977099  2.228536  -0.42634
H  2.750385  1.206467  1.756105
C  -3.545955  -1.75402  0.534498
C  -2.000453  -0.235148  2.450784
H  1.522443  0.073072  1.157471
C  4.760439  -0.003225  0.33985
C  3.458809  -1.444771  1.736671
H  0.490211  -1.067006  -2.245284
H  2.205583  -0.898699  -2.611081
H  1.504988  -2.543228  -2.30416
H  1.846597  -1.402955  -0.955513
H  5.427613  -0.848926  0.112036
H  4.730482  0.64391  -0.548686
H  5.224176  0.580402  1.168505
H  4.139188  -2.276041  1.494607
H  3.78962  -1.009454  2.707525
H  2.450147  -1.862992  1.880658
H  -2.966516  0.015033  2.915258
H  -1.577893  -1.128735  2.930675
H  -1.2991  0.601836  2.574364
H  -4.456092  -1.384981  1.031892
H  -3.750252  -1.94115  -0.528498
H  -3.224536  -2.698077  0.99544
H  -0.576711  -2.517684  -0.428649
