50
charge=0 multiplicity=1
C  -3.847735  0.86048  -0.755595
C  -2.526054  0.405312  -0.761541
C  -1.526368  1.161104  -0.1014
C  -1.885221  2.390909  0.496442
C  -3.202375  2.835833  0.449994
C  -4.195357  2.06931  -0.160064
C  -0.791821  3.13614  1.209116
C  0.503997  3.009606  0.460836
C  0.755804  1.75563  -0.126957
C  1.981514  1.537725  -0.797751
C  2.939555  2.553047  -0.819116
C  2.689245  3.791238  -0.230584
C  1.463486  4.016228  0.395085
H  -4.611781  0.262428  -1.261183
H  -3.45651  3.792002  0.916837
H  -5.230369  2.416794  -0.179944
H  -1.0648  4.18925  1.371825
H  3.887797  2.377741  -1.335895
H  3.443629  4.579973  -0.267631
H  1.254141  4.983916  0.860443
N  -0.195928  0.740387  -0.076511
Ru  0.363783  -1.058584  0.829384
C  -2.159411  -0.862196  -1.469123
H  -1.338436  -0.679671  -2.184786
H  -3.020424  -1.277946  -2.015555
C  2.19799  0.246718  -1.525214
H  1.382029  0.088002  -2.252339
H  3.153915  0.250442  -2.072707
P  -1.492361  -2.078732  -0.258023
P  2.135639  -1.241113  -0.44162
C  3.760887  -1.294508  0.382794
H  3.778575  -2.122115  1.10625
H  4.572893  -1.424061  -0.348622
H  3.894964  -0.351218  0.930157
C  2.23928  -2.626769  -1.631959
H  3.171799  -2.576443  -2.21494
H  2.199405  -3.581858  -1.08909
H  1.384037  -2.576877  -2.319723
C  -2.941653  -2.431364  0.807014
H  -3.794599  -2.808088  0.221291
H  -2.664391  -3.17429  1.56891
H  -3.240356  -1.501746  1.313488
C  -1.321071  -3.633657  -1.210538
H  -0.933534  -4.423054  -0.550178
H  -2.28721  -3.952122  -1.631267
H  -0.603553  -3.489736  -2.029564
C  0.838821  -2.540942  1.812305
O  1.148434  -3.469988  2.431443
H  -0.655673  2.683955  2.213964
H  1.477843  -0.186031  1.602644
