32
charge=0 multiplicity=1
N  -0.021362  -0.292819  1.575342
C  -0.458912  -0.137319  2.808919
O  -0.355818  -0.963058  3.734694
Na  0.503589  -2.436078  2.342569
Nb  0.12482  -0.141336  -0.267168
N  -1.102094  -1.394298  -1.218313
N  2.012585  -0.252729  -0.884271
N  -0.599577  1.70378  -0.419718
C  -2.491699  -1.470947  -0.835974
C  3.236028  -0.18801  -0.12652
C  -0.9193  2.626975  0.642689
C  2.204057  -0.034592  -2.297484
H  1.235727  0.013497  -2.829729
H  2.734381  0.915206  -2.507627
H  2.781108  -0.853224  -2.770934
C  -0.818158  2.259757  -1.73114
H  -0.592593  1.522883  -2.522709
H  -1.872864  2.570495  -1.873846
H  -0.185463  3.150313  -1.921125
C  -0.764269  -2.249029  -2.325478
H  -1.333249  -1.987795  -3.240963
H  0.308083  -2.182449  -2.566562
H  -0.981942  -3.313447  -2.105076
H  -2.776462  -2.496141  -0.524759
H  -3.162058  -1.180068  -1.669337
H  -2.702341  -0.798644  0.010109
H  3.933333  -1.001085  -0.409764
H  3.024784  -0.278842  0.948306
H  3.770097  0.770145  -0.287554
H  -0.257596  3.515883  0.623191
H  -0.823051  2.136437  1.623794
H  -1.959487  2.996779  0.546961
