38
charge=-1 multiplicity=1
C  3.466158  -2.31118  -0.639064
C  2.122607  -1.960873  -0.792006
C  1.512826  -1.030886  0.059941
C  2.27804  -0.436766  1.078667
C  3.621339  -0.801398  1.226754
C  4.218744  -1.735889  0.381906
Pd  -0.422232  -0.603001  -0.224549
C  1.677145  0.658432  1.909073
C  1.74625  2.01356  1.181756
C  1.411348  1.97091  -0.285595
C  0.172684  1.436994  -0.728193
C  -0.136236  1.504474  -2.1002
C  0.768038  2.023349  -3.028358
C  1.991676  2.514092  -2.581794
C  2.301387  2.499931  -1.219583
P  -0.957721  -2.658478  0.497113
H  -1.97577  -2.719649  1.478941
H  1.541552  -2.423075  -1.596511
H  0.011698  -3.493728  1.118488
H  -1.483302  -3.604783  -0.421463
H  3.25886  2.905382  -0.877785
H  4.209504  -0.332469  2.022835
H  5.26871  -2.009486  0.518633
H  3.92013  -3.038764  -1.318657
H  -0.741516  1.655289  0.191987
H  2.192686  0.752585  2.877405
H  0.631604  0.415828  2.142809
H  2.759504  2.433052  1.294917
H  1.035023  2.693663  1.682273
Br  -2.922423  -0.46443  -0.835038
O  -1.392032  2.319675  1.129246
C  -1.499821  1.74381  2.276452
O  -1.030115  2.120297  3.334572
O  -2.205588  0.571615  2.267373
H  -2.553462  0.443126  1.365278
H  -1.114616  1.142444  -2.43153
H  2.713281  2.922057  -3.296172
H  0.51633  2.049171  -4.092322
