27
charge=0 multiplicity=1
C  -0.195497  0.371118  0.030822
N  0.297621  0.066598  -1.192018
C  -0.650992  0.349369  -2.253551
C  -1.954412  0.52761  -1.488935
N  -1.491029  0.73257  -0.128176
C  1.678895  -0.112388  -1.549665
C  -2.401419  1.286166  0.838274
Ru  0.773372  0.340589  1.693819
C  -0.550397  -0.463357  2.613875
C  -0.393603  -0.648619  4.047654
Cl  0.575203  2.624074  1.93807
C  0.761436  -0.976538  4.655491
Cl  2.253692  -1.427623  1.467625
H  -0.351572  1.26605  -2.796108
H  -0.685156  -0.475839  -2.98107
H  -2.602352  -0.366423  -1.547124
H  -2.542698  1.391439  -1.834512
H  2.095999  0.814734  -1.983119
H  2.260002  -0.406124  -0.668591
H  1.767416  -0.916101  -2.296742
H  -2.909616  2.156185  0.392039
H  -3.175078  0.559599  1.14213
H  -1.845414  1.63435  1.715186
H  0.818594  -1.069515  5.742829
H  1.66126  -1.196343  4.071525
H  -1.50425  -0.784216  2.163835
H  -1.295997  -0.500915  4.658566
