57
charge=0 multiplicity=1
Mo  0.766019  -0.051121  -0.008998
Si  0.592227  -0.437465  2.50673
P  -0.094434  2.176666  0.744645
P  1.283443  -2.510416  0.009781
N  -0.900849  -0.285747  -0.608205
H  1.927814  0.696187  1.091837
C  -0.556616  3.305469  -0.625485
H  -1.021204  4.221503  -0.229546
H  -1.269168  2.797031  -1.289856
H  0.33622  3.573829  -1.204412
C  1.049521  3.217846  1.715401
H  0.586295  4.188022  1.950695
H  1.968843  3.373898  1.135658
H  1.31005  2.695896  2.645618
C  -1.647884  2.233431  1.719063
H  -1.896934  3.274148  1.977183
H  -1.540775  1.645435  2.640038
H  -2.463579  1.803237  1.121864
C  0.900365  -3.095802  -1.676873
H  1.151743  -4.160298  -1.800643
H  1.477628  -2.478179  -2.378353
H  -0.169557  -2.934211  -1.869398
C  3.040623  -2.944646  0.22136
H  3.221031  -4.008792  0.006875
H  3.365795  -2.710486  1.243302
H  3.608243  -2.315328  -0.478805
C  0.340618  -3.663593  1.064697
H  0.59299  -4.707705  0.825153
H  -0.730657  -3.493667  0.883843
H  0.538178  -3.471651  2.127558
C  2.085344  -1.27357  3.348869
H  3.016724  -0.75164  3.079733
H  2.2020  -2.334569  3.081395
H  1.96591  -1.225108  4.442559
H  0.416309  0.817861  3.32359
H  -0.599228  -1.269787  2.952096
C  -2.257684  -0.157173  -0.693967
C  -4.241017  0.564264  -1.899006
C  -2.858177  0.439175  -1.821942
C  -3.089149  -0.642777  0.337396
C  -4.47076  -0.527051  0.240129
C  -5.055362  0.08159  -0.872733
H  -4.69119  1.037651  -2.775361
H  -2.214321  0.79781  -2.628018
H  -2.614391  -1.0980  1.209693
H  -5.101194  -0.908836  1.047334
H  -6.141264  0.176372  -0.941383
C  1.95355  0.98507  -1.510074
O  2.213145  -0.326442  -1.386437
C  1.255663  1.328235  -2.813332
H  1.972483  1.2109  -3.647276
H  0.888468  2.36307  -2.839522
H  0.41042  0.649724  -2.992227
C  3.088246  1.91877  -1.152052
H  3.601266  1.578162  -0.244139
H  2.735169  2.949344  -0.992345
H  3.819322  1.953596  -1.981616
