43
charge=0 multiplicity=1
C  1.179575  0.75917  2.396573
C  1.168826  1.608976  3.4862
C  -0.085869  2.031111  3.981293
C  -1.238315  1.589123  3.394023
C  -1.198819  0.713197  2.254443
N  0.050734  0.353473  1.766479
H  -0.13422  2.700387  4.844858
H  2.102628  1.908316  3.962132
H  -2.215547  1.890519  3.77548
C  -2.362596  0.244065  1.649033
H  -3.328112  0.494936  2.095798
C  2.475466  0.185525  1.890009
H  2.594775  -0.831447  2.305187
H  3.339989  0.782331  2.218571
P  -2.218495  -0.865975  0.291118
P  2.405502  -0.049534  0.060649
C  0.161781  -1.426308  -1.962244
O  0.170975  -1.857125  -3.040549
C  -0.727801  2.343174  -1.049844
C  -3.410612  -0.33417  -1.000285
C  -2.907124  -2.503379  0.753567
C  2.986626  1.558914  -0.5962
C  3.78928  -1.184082  -0.300473
C  0.522409  -2.412899  0.536492
O  0.762387  -3.451522  0.994108
Re  0.136162  -0.689162  -0.193597
N  -0.369857  1.261063  -0.857102
C  -1.209476  3.691743  -1.254658
H  2.955964  1.540338  -1.695307
H  4.008959  1.790773  -0.260684
H  2.303553  2.34431  -0.241689
H  3.864544  -1.317384  -1.389359
H  3.563865  -2.1628  0.146954
H  4.746914  -0.807267  0.090388
H  -1.654011  3.790966  -2.255597
H  -0.386192  4.414459  -1.157357
H  -1.975239  3.920987  -0.49855
H  -3.112788  0.65148  -1.382294
H  -4.428749  -0.264765  -0.586437
H  -3.404753  -1.053609  -1.832721
H  -2.876439  -3.185079  -0.109754
H  -3.94515  -2.404441  1.106769
H  -2.290707  -2.924871  1.559366
