60
charge=0 multiplicity=1
Ta  0.509313  -0.265568  -0.098825
N  1.295771  -0.602619  1.717195
N  2.157946  0.627993  -0.880682
N  0.503629  -2.195884  -0.705358
N  -0.573835  1.55786  0.257499
N  -1.54609  -0.388387  0.331072
C  2.319061  0.181434  2.363041
H  3.099709  -0.47018  2.803194
H  2.798903  0.860627  1.646945
H  1.904158  0.795534  3.186707
C  0.689001  -1.541234  2.630773
H  -0.048711  -2.17415  2.117578
H  1.452188  -2.207394  3.079739
H  0.172646  -1.026375  3.46454
H  3.219243  -1.122212  -0.337651
C  3.349705  -0.193132  -0.910918
H  4.217628  0.339632  -0.473508
H  3.623373  -0.478997  -1.945341
H  2.583657  1.661806  -2.673239
C  2.372643  1.851917  -1.601828
H  3.240327  2.409636  -1.196851
H  1.49887  2.511369  -1.546563
C  -0.446575  -2.800134  -1.605792
H  -0.956651  -3.664418  -1.135311
H  -1.212462  -2.078472  -1.909228
H  0.048981  -3.178085  -2.52157
H  0.970637  -4.054901  0.188575
C  1.471551  -3.173861  -0.259899
H  2.090112  -3.546535  -1.099837
H  2.14553  -2.75414  0.499104
C  -0.403599  2.99217  0.302165
H  -0.260873  3.372482  -0.733634
C  0.845928  3.33189  1.106726
H  1.71841  2.777276  0.738373
H  1.069781  4.408287  1.054453
H  0.697077  3.056086  2.162416
C  -1.607011  3.728509  0.883145
H  -1.400942  4.808657  0.914293
H  -2.518491  3.582545  0.286588
H  -1.808521  3.393226  1.913269
H  -4.437446  -2.234076  0.114749
C  -3.737716  -1.457827  -0.231533
H  -4.289526  -0.506838  -0.280749
H  -3.42208  -1.718603  -1.250326
C  -2.547198  -1.357912  0.720534
H  -2.033613  -2.334632  0.708646
C  -3.03154  -1.111934  2.151214
H  -2.183342  -1.055613  2.847431
H  -3.590655  -0.165354  2.223359
H  -3.704442  -1.917828  2.483047
H  -2.66136  1.407786  0.772863
C  -1.787186  0.95486  0.286083
C  -0.430955  0.48425  -2.472477
H  0.071538  1.452307  -2.523089
H  0.038057  -0.304891  -3.071551
C  -1.815674  0.48137  -2.32898
H  -2.334361  -0.456784  -2.562315
C  -2.565631  1.451789  -1.669774
H  -2.202745  2.483842  -1.655555
H  -3.653459  1.344076  -1.630164
