51
charge=1 multiplicity=1
N  1.244903  1.192304  1.345519
C  1.917729  0.970792  -1.442368
H  2.799722  0.650649  -0.868913
H  2.134408  0.997155  -2.515165
C  1.20885  2.137046  -0.931291
C  0.797061  2.233579  0.436278
C  -0.052936  3.265405  0.87019
H  -0.335116  3.334957  1.921354
C  -0.531398  4.207021  -0.023624
H  -1.188106  5.006776  0.323191
C  -0.151051  4.130314  -1.371696
H  -0.517305  4.8738  -2.08318
C  0.690457  3.125192  -1.80633
H  0.983602  3.077668  -2.857769
C  0.381531  0.962448  2.504368
H  0.407181  1.795663  3.226207
H  0.717779  0.054973  3.025349
H  -0.666454  0.824264  2.1882
C  2.648169  1.326538  1.753388
H  3.28241  1.499767  0.876143
H  2.977438  0.409857  2.261486
H  2.764272  2.181153  2.440527
Sc  0.387793  -0.1208  -0.256665
C  2.021677  -2.621247  1.254074
C  3.510318  -2.427754  1.030893
N  1.217536  -2.098851  0.141296
C  3.943735  -3.057222  -0.285491
C  3.127061  -2.475988  -1.430922
C  1.637279  -2.612812  -1.172696
C  -0.225958  -2.14938  0.278578
H  1.68406  -2.124254  2.177429
H  1.795925  -3.698166  1.374072
H  3.74757  -1.350104  1.019477
H  4.057025  -2.864684  1.880337
H  5.017768  -2.895104  -0.459609
H  3.796127  -4.150203  -0.236226
H  3.381687  -1.413292  -1.567421
H  3.361795  -2.978908  -2.381145
H  1.05636  -2.077445  -1.949939
H  1.325228  -3.673474  -1.244736
H  -0.699712  -2.986935  -0.254096
H  -0.509564  -2.163655  1.343877
C  -2.288086  -0.472628  -0.882232
H  -2.225872  -1.319557  -1.574381
C  -1.71468  0.701957  -1.243429
H  -1.855211  1.619255  -0.658822
H  -1.235728  0.81402  -2.223697
C  -3.160377  -0.665162  0.309209
H  -2.952954  -1.614762  0.821988
H  -3.0813  0.165917  1.025643
H  -4.210211  -0.711993  -0.027455
