51
charge=0 multiplicity=1
C  -2.984463  0.055594  -1.476898
C  -2.250796  0.004973  -0.273791
C  -3.005078  -0.128324  0.9091
C  -4.398371  -0.204036  0.891967
C  -5.096196  -0.146993  -0.314429
C  -4.378054  -0.01512  -1.502598
Ir  -0.224504  0.128567  -0.339073
P  0.129432  -2.106971  -0.751958
C  1.89358  -2.180807  -0.709705
C  2.603962  -0.969464  -0.61848
N  1.922515  0.222206  -0.453155
C  2.584507  1.380409  -0.231318
C  3.965988  1.442395  -0.157043
C  4.692745  0.25474  -0.367367
C  4.033974  -0.925107  -0.606837
C  1.760369  2.64036  -0.129945
P  0.003476  2.300898  0.348347
H  4.584078  -1.85427  -0.765782
H  4.467007  2.392792  0.027664
H  5.785698  0.272953  -0.341741
H  2.243013  3.379116  0.528416
H  1.705945  3.1005  -1.13293
H  2.197619  -2.181468  1.294568
H  2.444552  -3.098588  -0.93353
H  -2.450892  0.151717  -2.431655
H  -4.906967  0.029583  -2.459367
H  -6.187345  -0.206157  -0.328942
H  -4.946551  -0.308074  1.83332
H  -2.483072  -0.173071  1.870456
H  -0.146225  -0.214015  1.153517
O  0.291323  -0.539337  3.104187
H  -0.308865  -1.177265  3.502468
H  1.079269  -1.071998  2.839014
O  2.394813  -1.981713  2.24056
H  3.169964  -1.411293  2.176607
C  -0.572633  -3.235045  0.503904
H  -1.670859  -3.191366  0.451462
H  -0.229983  -4.270273  0.35631
H  -0.25517  -2.878816  1.493048
C  -0.497854  -2.812967  -2.322535
H  -0.188377  -3.863565  -2.434316
H  -1.59649  -2.74896  -2.338523
H  -0.09154  -2.230483  -3.161312
C  -0.1210  2.576208  2.143937
H  0.305504  3.54632  2.440234
H  -1.188346  2.547596  2.410867
H  0.366307  1.742811  2.671339
C  -0.931953  3.693389  -0.374827
H  -1.993222  3.562239  -0.117452
H  -0.580974  4.667331  -0.000509
H  -0.843031  3.665739  -1.470299
