45
charge=0 multiplicity=1
Ta  0.03251  -0.085109  0.110094
N  -0.168441  -1.715791  -1.049018
N  -2.004451  0.027727  0.3628
N  2.104099  -0.043531  -0.031764
N  -0.06998  1.616534  -1.006716
C  -0.035734  -1.214951  2.2400
H  -1.102917  -1.38411  2.403974
H  0.597854  -2.092615  2.395803
C  0.536219  0.045081  2.529777
H  1.613474  0.030613  2.71362
C  -0.013164  1.298175  2.32316
H  -1.090488  1.467649  2.335079
H  0.620319  2.179686  2.443971
H  -3.190534  -1.149386  1.666175
C  -2.82824  -1.12937  0.617084
H  -2.275336  -2.060211  0.438044
H  -3.729335  -1.126816  -0.027003
H  -3.652145  1.255944  -0.126809
C  -2.778877  1.227561  0.554044
H  -3.183933  1.288318  1.585663
H  -2.171714  2.123882  0.379011
H  3.818571  1.100791  0.434237
C  3.276506  0.190498  0.765887
H  4.000399  -0.646321  0.68552
H  3.052496  0.325501  1.8300
H  2.970097  0.842418  -1.75743
C  2.522015  -0.114137  -1.421818
H  3.286345  -0.902808  -1.569293
H  1.681556  -0.33595  -2.093111
H  1.546167  -2.625232  -0.239511
C  0.726766  -2.844523  -0.93733
H  1.172303  -3.102439  -1.918473
H  0.195875  -3.745485  -0.571555
H  -1.771569  -2.869535  -1.821035
C  -1.19402  -1.947687  -2.034027
H  -1.90239  -1.109673  -2.072951
H  -0.754713  -2.069596  -3.043895
C  -1.078799  1.902314  -1.994282
H  -0.615735  2.089915  -2.983539
H  -1.67645  2.804053  -1.74727
H  -1.777831  1.062748  -2.107722
H  0.280048  3.599323  -0.337195
C  0.80477  2.746033  -0.815425
H  1.202386  3.11467  -1.781916
H  1.657088  2.475458  -0.177716
