60
charge=0 multiplicity=1
Ta  0.539252  -0.329052  -0.2884
N  1.355472  -0.575289  1.572912
N  2.243608  0.508659  -0.965683
N  0.515646  -2.272803  -0.774883
N  -0.542487  1.532023  0.417781
N  -1.493743  -0.450863  0.511035
C  2.349091  0.256226  2.200488
H  3.120067  -0.356317  2.709492
H  2.848058  0.891607  1.457257
H  1.906724  0.919812  2.970673
C  0.738835  -1.450165  2.540446
H  0.036297  -2.145512  2.059583
H  1.501102  -2.052044  3.07462
H  0.177167  -0.884728  3.311624
H  3.258631  -1.315649  -0.648056
C  3.438239  -0.300882  -1.029862
H  4.26165  0.137245  -0.430942
H  3.802419  -0.397924  -2.070993
H  2.777736  1.809712  -2.539926
C  2.479126  1.832887  -1.473186
H  3.294348  2.340294  -0.919428
H  1.581021  2.457397  -1.394559
C  -0.485377  -2.851675  -1.640892
H  -1.048777  -3.654819  -1.126711
H  -1.204519  -2.094308  -1.976748
H  -0.024294  -3.299424  -2.542118
H  0.858093  -4.087598  0.256638
C  1.413668  -3.278885  -0.258015
H  1.997314  -3.752065  -1.071336
H  2.118448  -2.842641  0.462733
C  -0.45045  2.974676  0.415114
H  -0.224485  3.28156  -0.625862
C  0.714168  3.417813  1.293884
H  1.643463  2.912529  0.998949
H  0.872083  4.504771  1.221857
H  0.51408  3.162719  2.346481
C  -1.736431  3.684097  0.81773
H  -1.59404  4.772608  0.753003
H  -2.573884  3.413378  0.15821
H  -2.016408  3.447442  1.85717
H  -4.479474  -2.106751  0.20464
C  -3.713196  -1.377125  -0.100123
H  -4.178848  -0.379603  -0.12855
H  -3.394411  -1.61932  -1.122169
C  -2.532484  -1.400568  0.866891
H  -2.061765  -2.396062  0.795925
C  -3.004964  -1.219998  2.308953
H  -2.156023  -1.230953  3.006725
H  -3.539569  -0.265481  2.438879
H  -3.699478  -2.024875  2.593974
H  -2.572263  1.325314  1.015008
C  -1.632633  0.85823  0.683854
C  -0.412146  0.460477  -2.267662
H  0.068278  1.429337  -2.475155
H  0.016375  -0.274407  -2.977339
C  -1.863424  0.561799  -2.416612
H  -2.396459  -0.38128  -2.602083
C  -2.625855  1.664566  -2.298574
H  -2.178053  2.652636  -2.147672
H  -3.714624  1.619698  -2.386393
