41
charge=0 multiplicity=1
C  1.280121  -1.10545  -0.240365
C  1.790968  0.20278  -0.630035
C  2.264404  0.351945  -1.971612
C  2.23273  -0.681161  -2.877084
C  1.723249  -1.945896  -2.497253
C  1.279255  -2.162154  -1.214457
H  2.698327  1.322035  -2.222687
H  2.609891  -0.529648  -3.890532
H  1.688792  -2.761218  -3.224049
H  0.922346  -3.146494  -0.897916
C  2.241567  1.27851  0.325015
O  2.944271  2.206241  -0.021903
N  1.753508  1.174004  1.602419
O  2.349432  1.903433  2.591553
C  1.802057  3.202744  2.666398
H  0.716583  3.16796  2.865668
H  2.314668  3.693787  3.504866
H  1.994632  3.762055  1.738093
Pd  -0.340591  0.050438  -0.499409
O  1.301959  -1.530475  1.115064
C  2.508448  -2.158705  1.523406
H  2.3671  -2.493954  2.559482
H  2.740173  -3.021873  0.880115
H  3.342661  -1.44018  1.479042
O  -2.169417  -1.150104  0.42903
O  -1.897005  1.596782  -1.042876
C  -3.115436  1.582439  -1.075801
O  -3.852102  0.590052  -0.626927
C  -3.921051  2.708375  -1.644453
H  -4.512201  2.339253  -2.495587
H  -4.633108  3.073964  -0.890581
H  -3.258289  3.517132  -1.969205
H  -3.27144  -0.116633  -0.242906
H  1.358705  0.292631  1.919361
H  -0.199004  -2.09957  1.426947
C  -2.132525  -2.099371  1.206397
O  -1.03484  -2.577606  1.714989
C  -3.364387  -2.829421  1.639441
H  -4.263576  -2.290904  1.321104
H  -3.358116  -3.832718  1.186696
H  -3.358543  -2.965169  2.729532
