53
charge=0 multiplicity=1
C  3.878925  -0.961726  -1.116422
C  2.572046  -1.032365  -0.616966
N  1.910641  0.102458  -0.301457
C  2.523509  1.301136  -0.342524
C  3.821894  1.423381  -0.828682
C  4.494896  0.274467  -1.240772
C  1.91607  -2.304362  -0.257974
P  0.093795  -2.245261  -0.344662
Ir  -0.247911  0.016824  -0.064531
P  -0.0401  2.299229  0.041934
C  1.783389  2.454903  0.265356
C  -2.298576  -0.015882  -0.104304
C  -3.015005  -0.090142  -1.31756
C  -4.409693  -0.097681  -1.359861
C  -5.154622  -0.028252  -0.183802
C  -4.478146  0.047817  1.031885
C  -3.082826  0.053134  1.065337
O  1.859782  -1.822164  2.420262
O  1.650788  0.598439  2.719422
H  4.398493  -1.881742  -1.387609
H  4.298384  2.40378  -0.866582
H  5.510566  0.345396  -1.637639
C  -0.462394  -2.992956  -1.910288
C  -0.452657  -3.358268  0.9820
H  1.916223  2.310273  1.357934
H  2.192196  3.429387  -0.038377
H  2.040728  -2.271752  0.924316
H  2.386113  -3.193911  -0.698796
C  -0.492662  3.275823  -1.425969
C  -0.750166  3.199122  1.455177
H  -2.463128  -0.14301  -2.259754
H  -4.918884  -0.15774  -2.326432
H  -6.246987  -0.034278  -0.214326
H  -5.039991  0.101022  1.969097
H  -2.591385  0.112364  2.041893
H  -0.54104  -0.319094  1.664522
H  1.357899  0.668723  3.633992
H  1.831589  -0.487498  2.602005
H  2.531169  -2.221079  2.983194
H  -0.286799  0.149225  -1.648896
H  0.204161  0.081731  1.797204
H  -0.154049  -4.04647  -1.98623
H  -1.559623  -2.925514  -1.960356
H  -0.041061  -2.418786  -2.74703
H  -0.21531  -4.409295  0.756992
H  0.111933  -3.019746  1.8712
H  -1.535116  -3.242732  1.135482
H  -0.481326  4.266129  1.452263
H  -1.844243  3.08977  1.425678
H  -0.371665  2.720359  2.36977
H  -0.258084  4.343736  -1.302571
H  0.046171  2.870804  -2.293913
H  -1.570874  3.14942  -1.604935
