57
charge=0 multiplicity=1
Mo  0.575557  -0.076057  -0.13507
Si  0.961478  -0.38042  2.328237
P  -0.350292  2.281921  0.229487
P  0.99866  -2.530446  -0.304444
N  -1.158482  -0.457641  -0.300779
H  1.677431  1.0352  0.611513
C  -1.053869  3.284514  -1.145115
H  -1.475625  4.231875  -0.774283
H  -1.854376  2.698151  -1.619021
H  -0.286816  3.501941  -1.90015
C  0.763148  3.470662  1.078355
H  0.252089  4.428186  1.260864
H  1.672437  3.652884  0.491075
H  1.059213  3.029239  2.041536
C  -1.767525  2.293821  1.39206
H  -2.051284  3.329033  1.636045
H  -1.482887  1.763171  2.311224
H  -2.6272  1.778094  0.945361
C  0.931828  -3.061062  -2.053495
H  1.124516  -4.139039  -2.166282
H  1.677082  -2.482176  -2.616815
H  -0.065137  -2.82163  -2.450919
C  2.604749  -3.194974  0.26662
H  2.714411  -4.262348  0.020873
H  2.686457  -3.063971  1.355218
H  3.409613  -2.62386  -0.218465
C  -0.239204  -3.592181  0.511707
H  -0.056428  -4.658367  0.309675
H  -1.233843  -3.306297  0.140361
H  -0.211906  -3.406176  1.594519
C  2.768797  -0.343681  2.93791
H  3.218678  0.646805  2.768592
H  3.39771  -1.085707  2.421831
H  2.811233  -0.560193  4.016837
H  0.267022  0.658884  3.18199
H  0.414961  -1.676257  2.897905
C  -2.514489  -0.400376  -0.336839
C  -4.587064  0.125413  -1.499425
C  -3.197903  0.066178  -1.481215
C  -3.279157  -0.833322  0.769803
C  -4.667078  -0.786633  0.729536
C  -5.332468  -0.300885  -0.39874
H  -5.096945  0.499721  -2.391122
H  -2.608391  0.374589  -2.347578
H  -2.748414  -1.19406  1.653676
H  -5.240397  -1.126061  1.596257
H  -6.423507  -0.26004  -0.421486
C  2.467651  0.940343  -1.010703
O  2.057373  -0.209679  -1.522425
C  2.265894  2.141328  -1.906473
H  3.090728  2.169586  -2.642116
H  2.28765  3.096122  -1.363699
H  1.321651  2.055101  -2.458377
C  3.81617  0.905462  -0.321939
H  3.903541  0.02753  0.330385
H  3.989824  1.807823  0.282967
H  4.6115  0.849132  -1.086782
