41
charge=0 multiplicity=1
C  -0.943641  -2.404836  -0.090694
O  -1.168456  -3.551504  0.253113
N  0.267905  -1.776521  -0.079769
O  1.339869  -2.527831  0.362422
C  1.336979  -2.707131  1.771955
H  1.31242  -1.730503  2.284936
H  0.469269  -3.317647  2.057843
H  2.267164  -3.23781  2.016416
C  -1.960342  -1.412505  -0.554723
C  -3.302605  -1.74699  -0.706975
C  -4.202558  -0.776811  -1.146484
C  -3.745811  0.509906  -1.436381
C  -2.396338  0.846238  -1.276603
C  -1.494967  -0.116841  -0.821125
H  -3.613419  -2.769803  -0.477129
H  -5.259593  -1.022887  -1.27239
H  -4.448419  1.266487  -1.796762
H  -2.059463  1.85588  -1.521073
H  -0.752917  0.167538  1.506279
Pd  0.42102  0.150739  -0.47962
O  0.390684  2.223163  -0.846459
C  0.080122  3.167372  -0.117624
C  0.263536  4.574166  -0.593348
H  0.866154  5.132566  0.136852
H  0.743879  4.584393  -1.577027
H  -0.718531  5.067036  -0.645904
O  -0.423073  3.077824  1.070822
O  2.576306  0.474774  -0.153233
C  3.578633  -0.222361  -0.288392
O  3.575668  -1.520223  -0.348469
C  4.939967  0.387557  -0.407397
H  4.879725  1.475624  -0.301709
H  5.607168  -0.039734  0.354619
H  5.362937  0.127252  -1.389084
H  2.65738  -1.911587  -0.168175
O  -1.037647  0.845968  2.149792
H  -0.609067  2.137113  1.429701
C  -2.423772  0.696701  2.397782
H  -2.627259  -0.252431  2.918217
H  -2.734185  1.525093  3.049073
H  -3.012988  0.726932  1.466764
