33
charge=0 multiplicity=1
C  0.199468  2.985965  0.629668
N  0.168752  1.659642  0.472171
N  1.318058  1.149711  0.940343
C  2.085552  2.152692  1.398139
C  1.410661  3.35211  1.221291
B  1.727479  -0.354634  0.859475
N  0.59733  -1.208618  1.463488
N  -0.685308  -1.043255  1.128444
C  -1.398914  -1.944465  1.802679
C  -0.550414  -2.727859  2.595633
C  0.714321  -2.216543  2.346412
Pt  -1.25528  0.487618  -0.269398
N  2.04283  -0.7788  -0.574352
N  1.09396  -1.02849  -1.486117
C  1.730012  -1.298914  -2.617669
C  3.127779  -1.227375  -2.448245
C  3.279223  -0.890186  -1.116451
H  1.164706  -1.541648  -3.517798
H  4.170854  -0.726853  -0.514712
H  3.909051  -1.404236  -3.183353
H  2.72628  -0.479846  1.54061
H  1.68982  -2.497078  2.736294
H  3.066354  1.940245  1.815972
H  -0.819918  -3.54173  3.263026
H  1.746816  4.350733  1.485344
H  -2.482012  -1.980346  1.69915
H  -0.646574  3.590847  0.314566
H  -1.621479  -1.143181  -1.75484
H  -1.651009  1.633991  -1.251873
C  -2.650609  -0.988113  -1.385726
H  -2.998154  -1.912223  -0.908797
H  -2.879442  -0.174227  -0.579646
H  -3.295549  -0.682559  -2.216124
