31
charge=0 multiplicity=1
Cu  -0.082347  -0.674244  -0.317915
C  -1.350879  -2.230374  -0.525102
B  -1.080733  1.099037  -0.293927
O  -2.123043  1.485016  -1.104813
O  -0.724227  2.145666  0.556271
C  -2.453947  2.839856  -0.851292
C  -1.658136  3.206207  0.407283
H  -2.298123  3.257901  1.304901
H  -1.125485  4.166019  0.316144
H  -3.541682  2.938886  -0.712286
H  -2.167188  3.456422  -1.721425
C  -2.280779  -2.066647  0.604176
O  -3.467319  -1.869204  0.511796
C  -0.049746  -2.716886  -0.337393
H  0.52418  -3.113631  -1.178927
H  0.265332  -3.055593  0.656722
H  -1.80852  -2.179725  -1.519147
H  -1.78801  -2.168118  1.611595
P  2.000868  0.023009  0.104422
C  2.01059  0.671881  1.812021
H  1.810677  -0.144688  2.521055
H  2.974904  1.141652  2.060448
H  1.196381  1.408948  1.883667
C  2.472516  1.481869  -0.889403
H  2.513081  1.21358  -1.955038
H  1.688103  2.23901  -0.748421
H  3.446915  1.887748  -0.576665
C  3.489577  -1.044444  0.02838
H  4.39875  -0.505136  0.337935
H  3.343544  -1.914789  0.684637
H  3.622039  -1.413917  -0.999173
