41
charge=0 multiplicity=1
C  -0.828542  -2.405863  -0.016966
O  -1.032192  -3.580843  0.225878
N  0.339371  -1.728477  0.138237
O  1.391212  -2.455715  0.651402
C  1.327799  -2.574796  2.066886
H  1.255662  -1.579155  2.533515
H  0.459513  -3.191376  2.338737
H  2.254585  -3.077519  2.374257
C  -1.860116  -1.447091  -0.528224
C  -3.022788  -1.892016  -1.14399
C  -3.923528  -0.957168  -1.654861
C  -3.666667  0.41212  -1.54254
C  -2.508869  0.858971  -0.91046
C  -1.594953  -0.07019  -0.387373
H  -3.195245  -2.967982  -1.223622
H  -4.836491  -1.297021  -2.150221
H  -4.380221  1.135145  -1.944772
H  -2.323557  1.927945  -0.787417
H  -1.201692  0.299967  0.78206
Pd  0.452371  0.21253  -0.214403
O  0.461821  2.183286  -0.690812
C  0.081951  3.136651  0.064437
C  0.380462  4.515996  -0.472027
H  1.458016  4.710209  -0.359197
H  0.150841  4.567662  -1.544742
H  -0.181293  5.274297  0.086015
O  -0.481487  3.024664  1.165491
O  2.553436  0.432916  -0.315269
C  3.540192  -0.286663  -0.474374
O  3.555121  -1.574749  -0.339303
C  4.854261  0.30843  -0.867167
H  4.799488  1.401465  -0.83764
H  5.648386  -0.064467  -0.205813
H  5.097944  -0.022909  -1.888113
H  2.672433  -1.941072  0.004294
O  -1.291258  0.844288  2.134752
H  -0.921006  1.747937  1.832811
C  -2.610455  0.994623  2.593799
H  -3.002286  0.006135  2.87408
H  -2.642851  1.646666  3.482308
H  -3.272932  1.42525  1.821168
