39
charge=0 multiplicity=1
C  -2.251415  1.321112  -0.70927
C  -2.317555  -0.131117  -0.344121
N  -1.121964  -0.695783  -0.140983
C  -0.996595  -1.997198  0.164482
C  -2.129774  -2.811432  0.208812
C  -3.382117  -2.246143  -0.013576
C  -3.486769  -0.881472  -0.276964
C  0.38345  -2.462059  0.51086
P  1.670463  -1.317368  -0.195277
H  -4.456288  -0.406107  -0.43488
H  -2.026065  -3.872951  0.439481
H  -4.279729  -2.867132  0.032366
C  -0.90975  3.300954  -0.657583
C  -1.521279  2.223761  1.410241
H  0.541895  -3.527925  0.287549
H  -3.226645  1.817156  -0.54032
H  -2.019158  1.375804  -1.785687
C  2.210083  -2.107077  -1.752333
C  3.073365  -1.5424  0.94548
H  2.988758  -1.48059  -2.211674
H  2.600648  -3.124268  -1.593819
H  1.353305  -2.135015  -2.440278
H  3.924556  -0.943218  0.591059
H  2.729102  -1.142244  1.909853
H  3.377584  -2.59518  1.045497
H  -2.525268  2.679535  1.505448
H  -1.434895  1.266761  1.946735
H  -0.781102  2.897773  1.86055
H  -1.805561  3.952284  -0.639752
H  -0.088878  3.813067  -0.140344
H  -0.602118  3.119663  -1.695372
C  1.988583  1.680625  -0.295189
O  2.920579  2.363666  -0.413135
Ru  0.534991  0.585739  -0.164109
H  0.416959  0.741696  -1.779834
O  0.415993  0.127322  1.933661
H  0.982845  0.741713  2.4100
H  0.496749  -2.288781  1.595799
N  -1.169622  2.0217  0.000901
