60
charge=0 multiplicity=1
Ta  0.611437  -0.300848  0.291416
N  1.397741  -0.209569  2.127114
N  1.828333  0.214011  -1.22512
N  0.846431  -2.321497  0.090433
N  -0.481469  1.434983  0.382579
N  -1.38859  -0.522915  0.039438
C  2.789781  -0.451824  2.400836
H  2.934678  -1.315617  3.080465
H  3.344654  -0.667848  1.47496
H  3.269954  0.426444  2.875884
C  0.629617  0.123272  3.29813
H  -0.421122  0.312231  3.033416
H  0.649669  -0.692803  4.047643
H  1.018706  1.035282  3.794966
H  3.219306  -1.282152  -0.697141
C  3.073759  -0.486604  -1.442815
H  3.940571  0.200962  -1.38943
H  3.099568  -0.967699  -2.441198
H  1.479851  0.739483  -3.247537
C  1.586353  1.203829  -2.246182
H  2.428525  1.921421  -2.313117
H  0.667887  1.764345  -2.035871
C  0.701813  -2.961155  -1.194779
H  -0.23376  -3.552312  -1.269077
H  0.689467  -2.217629  -2.006577
H  1.538907  -3.661184  -1.389954
H  -0.098927  -3.861838  1.21244
C  0.850255  -3.287469  1.159136
H  1.660597  -4.031743  1.022927
H  0.998395  -2.794561  2.130146
C  -0.323507  2.851759  0.59421
H  -0.654682  3.395959  -0.3177
C  1.147988  3.179678  0.812013
H  1.762176  2.821856  -0.026481
H  1.299251  4.26493  0.912057
H  1.517016  2.693269  1.729079
C  -1.162944  3.372585  1.76186
H  -1.019365  4.456818  1.889719
H  -2.238514  3.197616  1.609966
H  -0.86801  2.873591  2.698812
H  -3.531896  -2.844429  -1.298873
C  -2.951507  -1.908028  -1.320406
H  -3.634232  -1.102044  -1.628887
H  -2.17392  -2.005549  -2.09187
C  -2.315033  -1.63502  0.044933
H  -1.709928  -2.523491  0.288172
C  -3.377141  -1.514594  1.13614
H  -2.910777  -1.345645  2.119004
H  -4.072363  -0.682169  0.942457
H  -3.977482  -2.435456  1.194731
H  -2.400321  0.970137  1.146701
C  -1.795495  0.855787  0.217987
C  -1.885258  2.447096  -3.105089
H  -2.288231  3.435091  -2.857144
H  -1.399887  2.33998  -4.079082
C  -1.981451  1.422044  -2.256177
H  -1.558278  0.450851  -2.538547
C  -2.632409  1.473643  -0.915144
H  -2.876792  2.516388  -0.652676
H  -3.596794  0.936331  -0.947028
