38
charge=0 multiplicity=1
C  -2.487313  0.433716  0.179376
C  -1.632276  1.57263  0.224704
C  -0.730918  1.391169  1.301131
C  -1.034571  0.157507  1.945975
C  -2.117402  -0.429169  1.250219
W  -0.330816  -0.281653  -0.3638
C  1.406023  -2.241087  -0.19669
C  0.390486  -2.38754  -1.130925
H  0.67034  -2.326831  -2.187294
C  -0.99777  -2.370305  -0.777706
H  -1.295354  -2.898049  0.134568
H  -1.714195  -2.485987  -1.595708
C  2.826111  -2.152247  -0.667179
H  2.890752  -1.804914  -1.706558
H  3.414813  -1.465933  -0.041223
H  3.295121  -3.150063  -0.600088
N  -0.382696  0.171211  -2.074586
O  -0.533281  0.588131  -3.17258
C  1.251894  -2.616297  1.252534
H  1.703603  -3.612803  1.409442
H  1.799469  -1.916765  1.900774
H  0.208771  -2.666115  1.590931
C  1.672218  0.582262  -0.118142
C  2.365774  1.10412  -1.225739
C  2.330554  0.670332  1.123657
C  3.643161  1.65494  -1.104998
H  1.904061  1.08154  -2.216185
C  3.605903  1.21949  1.256149
H  1.840248  0.300358  2.030644
C  4.274075  1.711851  0.135716
H  4.147523  2.045465  -1.993359
H  4.078495  1.265097  2.241419
H  5.273787  2.142742  0.231439
H  -2.595186  -1.376692  1.492074
H  0.060443  2.08134  1.582907
H  -0.529418  -0.253784  2.818365
H  -3.29038  0.262834  -0.535466
H  -1.657205  2.42373  -0.454005
