32
charge=0 multiplicity=1
N  0.319321  -0.171303  1.505273
C  -0.55119  -0.11438  2.978871
O  -0.887723  -1.23295  3.268803
Na  -0.335833  -2.434288  1.476975
Nb  0.286229  0.048692  -0.228184
N  -0.923372  -1.56295  -0.788394
N  2.144046  -0.162507  -0.956744
N  -0.658793  1.781729  -0.518711
C  -2.312676  -1.5771  -0.378535
C  3.369361  -0.389765  -0.231079
C  -1.194459  2.637894  0.51605
C  2.369168  0.077684  -2.360483
H  1.421373  0.269104  -2.894642
H  3.02423  0.954109  -2.537946
H  2.844506  -0.791608  -2.858553
C  -0.807696  2.34283  -1.837548
H  -0.394225  1.671688  -2.611071
H  -1.872427  2.512648  -2.094375
H  -0.288778  3.317257  -1.938732
C  -0.748833  -2.156763  -2.094471
H  -1.329388  -1.640374  -2.888683
H  0.31196  -2.143377  -2.392111
H  -1.074663  -3.21773  -2.113038
H  -2.725606  -2.609086  -0.327953
H  -2.972535  -1.016925  -1.072517
H  -2.442749  -1.108307  0.612373
H  3.903892  -1.28725  -0.60362
H  3.159846  -0.528216  0.838029
H  4.068571  0.464444  -0.332855
H  -0.683219  3.621024  0.530768
H  -1.074926  2.172915  1.505454
H  -2.272232  2.837178  0.352357
