38
charge=0 multiplicity=1
P  -2.202339  -0.229019  -0.131511
N  -0.00727  -1.434964  -1.468419
C  1.179947  -2.209859  -1.629978
C  -1.187594  -2.227891  -1.58715
C  -2.411433  -1.320417  -1.592117
H  -3.368838  -1.864913  -1.579489
H  -2.379289  -0.674445  -2.484277
C  2.38878  -1.283836  -1.679596
H  2.314719  -0.639432  -2.570383
P  2.215863  -0.194209  -0.212888
C  0.027134  1.028564  1.461989
O  0.03867  1.713597  2.395699
Mn  0.009801  -0.054466  0.059354
C  -0.023711  1.250978  -1.132725
O  -0.046413  2.071406  -1.944231
C  -3.209425  1.261486  -0.455737
H  -4.257637  1.001839  -0.66741
C  3.187468  1.311152  -0.574582
H  2.725032  1.846942  -1.415574
H  1.343259  -2.965557  -0.808972
H  1.146913  -2.815947  -2.561897
H  3.354234  -1.813659  -1.701159
H  -1.309424  -2.986109  -0.761289
H  -1.179253  -2.833287  -2.52007
C  3.233757  -1.002452  1.081136
H  4.295288  -1.048573  0.79326
C  -3.159085  -1.05371  1.198122
H  -2.766152  -2.070612  1.345816
H  -0.381233  -1.394436  1.02883
H  0.457433  -1.389055  1.011641
H  -4.229739  -1.115679  0.949755
H  -3.035921  -0.496094  2.138496
H  -2.786312  1.804631  -1.31256
H  -3.170135  1.922689  0.422703
H  2.862171  -2.025008  1.244228
H  3.137192  -0.445485  2.024996
H  3.170462  1.972587  0.30439
H  4.231051  1.067201  -0.824422
