39
charge=0 multiplicity=1
C  -2.263598  1.281036  -0.778448
C  -2.332111  -0.160945  -0.364522
N  -1.12409  -0.709561  -0.183946
C  -0.947912  -2.027649  0.159392
C  -2.130389  -2.818747  0.297432
C  -3.36905  -2.250428  0.112228
C  -3.501099  -0.885079  -0.220496
C  0.372616  -2.46811  0.38123
P  1.647059  -1.383867  -0.230884
H  -4.475581  -0.418199  -0.364745
H  -2.031084  -3.874527  0.55487
H  -4.265352  -2.866503  0.225365
C  -0.903626  3.26641  -0.734182
C  -1.590201  2.245445  1.323405
H  0.555053  -3.529949  0.569615
H  -3.235751  1.788873  -0.635645
H  -2.015466  1.316274  -1.851245
C  2.251939  -1.969635  -1.86018
C  3.122548  -1.659861  0.823243
H  3.052138  -1.306355  -2.222079
H  2.625066  -3.003354  -1.796857
H  1.4130  -1.92585  -2.567747
H  3.959081  -1.044735  0.460163
H  2.89748  -1.370789  1.859289
H  3.420195  -2.719828  0.812801
H  -2.489046  2.890143  1.362864
H  -1.798741  1.293862  1.826804
H  -0.768502  2.7406  1.857026
H  -1.802591  3.912478  -0.765238
H  -0.106249  3.793608  -0.195058
H  -0.55704  3.069564  -1.756188
C  1.998363  1.66157  -0.123454
O  2.950916  2.324438  -0.160026
Ru  0.523586  0.578767  -0.128131
H  0.562982  0.746109  -1.689355
O  0.259763  -0.032301  2.151502
H  1.094318  0.11278  2.609801
H  0.253936  -0.998882  1.944768
N  -1.188139  1.998881  -0.062626
